 C  O Mg  O                             
   1.0000000000000000     
     8.3491118265846538    0.0000000000000000    0.0000000000000000
     0.0000000000000000    8.3491118265846538    0.0000000000000000
     0.0000000000000000    0.0000000000000000   21.2618338699384921
   C    O    Mg   O 
     1     1    32    32
Selective dynamics
Direct
  0.5000000000000000  0.5000000000000000  0.7659506448099620   T   T   T
  0.5000000000000000  0.5000000000000000  0.8174420061744757   T   T   T
  0.2500000000000000  0.0000000000000000  0.3527447371604211   F   F   F
  0.5000000000000000  0.2500000000000000  0.3527447371604211   F   F   F
  0.2500000000000000  0.2500000000000000  0.4509149123868070   F   F   F
  0.5000000000000000  0.0000000000000000  0.4509149123868070   F   F   F
  0.2501267067785591  0.0000000000000000  0.5496065195950735   F   F   F
  0.5000000000000000  0.2503852082063673  0.5498489818870596   F   F   F
  0.2497823058044304  0.2497823058044304  0.6470544437982610   F   F   F
  0.5000000000000000  0.0000000000000000  0.6471284611378962   F   F   F
  0.2500000000000000  0.5000000000000000  0.3527447371604211   F   F   F
  0.5000000000000000  0.7500000000000000  0.3527447371604211   F   F   F
  0.2500000000000000  0.7500000000000000  0.4509149123868070   F   F   F
  0.5000000000000000  0.5000000000000000  0.4509149123868070   F   F   F
  0.2503852082063673  0.5000000000000000  0.5498489818870596   F   F   F
  0.5000000000000000  0.7496147917936398  0.5498489818870596   F   F   F
  0.2497823058044304  0.7502176941955696  0.6470544437982610   F   F   F
  0.5000000000000000  0.5000000000000000  0.6494765212782312   F   F   F
  0.7500000000000000  0.0000000000000000  0.3527447371604211   F   F   F
  0.0000000000000000  0.2500000000000000  0.3527447371604211   F   F   F
  0.7500000000000000  0.2500000000000000  0.4509149123868070   F   F   F
  0.0000000000000000  0.0000000000000000  0.4509149123868070   F   F   F
  0.7498732932214409  0.0000000000000000  0.5496065195950735   F   F   F
  0.0000000000000000  0.2501267067785591  0.5496065195950735   F   F   F
  0.7502176941955696  0.2497823058044304  0.6470544437982610   F   F   F
  0.0000000000000000  0.0000000000000000  0.6471445672948093   F   F   F
  0.7500000000000000  0.5000000000000000  0.3527447371604211   F   F   F
  0.0000000000000000  0.7500000000000000  0.3527447371604211   F   F   F
  0.7500000000000000  0.7500000000000000  0.4509149123868070   F   F   F
  0.0000000000000000  0.5000000000000000  0.4509149123868070   F   F   F
  0.7496147917936398  0.5000000000000000  0.5498489818870596   F   F   F
  0.0000000000000000  0.7498732932214409  0.5496065195950735   F   F   F
  0.7502176941955696  0.7502176941955696  0.6470544437982610   F   F   F
  0.0000000000000000  0.5000000000000000  0.6471284611378962   F   F   F
  0.2500000000000000  0.0000000000000000  0.4509149123868070   F   F   F
  0.5000000000000000  0.2500000000000000  0.4509149123868070   F   F   F
  0.2500000000000000  0.2500000000000000  0.3527447371604211   F   F   F
  0.5000000000000000  0.0000000000000000  0.3527447371604211   F   F   F
  0.2497774126919197  0.0000000000000000  0.6495146196605717   F   F   F
  0.5000000000000000  0.2488441208390881  0.6496197077455790   F   F   F
  0.2500050842055117  0.2500050842055117  0.5493985519540843   F   F   F
  0.5000000000000000  0.0000000000000000  0.5493339446193986   F   F   F
  0.2500000000000000  0.5000000000000000  0.4509149123868070   F   F   F
  0.5000000000000000  0.7500000000000000  0.4509149123868070   F   F   F
  0.2500000000000000  0.7500000000000000  0.3527447371604211   F   F   F
  0.5000000000000000  0.5000000000000000  0.3527447371604211   F   F   F
  0.2488441208390881  0.5000000000000000  0.6496197077455790   F   F   F
  0.5000000000000000  0.7511558791609119  0.6496197077455790   F   F   F
  0.2500050842055117  0.7499949157944883  0.5493985519540843   F   F   F
  0.5000000000000000  0.5000000000000000  0.5498625865784419   F   F   F
  0.7500000000000000  0.0000000000000000  0.4509149123868070   F   F   F
  0.0000000000000000  0.2500000000000000  0.4509149123868070   F   F   F
  0.7500000000000000  0.2500000000000000  0.3527447371604211   F   F   F
  0.0000000000000000  0.0000000000000000  0.3527447371604211   F   F   F
  0.7502225873080803  0.0000000000000000  0.6495146196605717   F   F   F
  0.0000000000000000  0.2497774126919197  0.6495146196605717   F   F   F
  0.7499949157944883  0.2500050842055117  0.5493985519540843   F   F   F
  0.0000000000000000  0.0000000000000000  0.5493130745710246   F   F   F
  0.7500000000000000  0.5000000000000000  0.4509149123868070   F   F   F
  0.0000000000000000  0.7500000000000000  0.4509149123868070   F   F   F
  0.7500000000000000  0.7500000000000000  0.3527447371604211   F   F   F
  0.0000000000000000  0.5000000000000000  0.3527447371604211   F   F   F
  0.7511558791609119  0.5000000000000000  0.6496197077455790   F   F   F
  0.0000000000000000  0.7502225873080803  0.6495146196605717   F   F   F
  0.7499949157944883  0.7499949157944883  0.5493985519540843   F   F   F
  0.0000000000000000  0.5000000000000000  0.5493339446193986   F   F   F

  0.00000000E+00  0.00000000E+00  0.00000000E+00
  0.00000000E+00  0.00000000E+00  0.00000000E+00
  0.00000000E+00  0.00000000E+00  0.00000000E+00
  0.00000000E+00  0.00000000E+00  0.00000000E+00
  0.00000000E+00  0.00000000E+00  0.00000000E+00
  0.00000000E+00  0.00000000E+00  0.00000000E+00
  0.00000000E+00  0.00000000E+00  0.00000000E+00
  0.00000000E+00  0.00000000E+00  0.00000000E+00
  0.00000000E+00  0.00000000E+00  0.00000000E+00
  0.00000000E+00  0.00000000E+00  0.00000000E+00
  0.00000000E+00  0.00000000E+00  0.00000000E+00
  0.00000000E+00  0.00000000E+00  0.00000000E+00
  0.00000000E+00  0.00000000E+00  0.00000000E+00
  0.00000000E+00  0.00000000E+00  0.00000000E+00
  0.00000000E+00  0.00000000E+00  0.00000000E+00
  0.00000000E+00  0.00000000E+00  0.00000000E+00
  0.00000000E+00  0.00000000E+00  0.00000000E+00
  0.00000000E+00  0.00000000E+00  0.00000000E+00
  0.00000000E+00  0.00000000E+00  0.00000000E+00
  0.00000000E+00  0.00000000E+00  0.00000000E+00
  0.00000000E+00  0.00000000E+00  0.00000000E+00
  0.00000000E+00  0.00000000E+00  0.00000000E+00
  0.00000000E+00  0.00000000E+00  0.00000000E+00
  0.00000000E+00  0.00000000E+00  0.00000000E+00
  0.00000000E+00  0.00000000E+00  0.00000000E+00
  0.00000000E+00  0.00000000E+00  0.00000000E+00
  0.00000000E+00  0.00000000E+00  0.00000000E+00
  0.00000000E+00  0.00000000E+00  0.00000000E+00
  0.00000000E+00  0.00000000E+00  0.00000000E+00
  0.00000000E+00  0.00000000E+00  0.00000000E+00
  0.00000000E+00  0.00000000E+00  0.00000000E+00
  0.00000000E+00  0.00000000E+00  0.00000000E+00
  0.00000000E+00  0.00000000E+00  0.00000000E+00
  0.00000000E+00  0.00000000E+00  0.00000000E+00
  0.00000000E+00  0.00000000E+00  0.00000000E+00
  0.00000000E+00  0.00000000E+00  0.00000000E+00
  0.00000000E+00  0.00000000E+00  0.00000000E+00
  0.00000000E+00  0.00000000E+00  0.00000000E+00
  0.00000000E+00  0.00000000E+00  0.00000000E+00
  0.00000000E+00  0.00000000E+00  0.00000000E+00
  0.00000000E+00  0.00000000E+00  0.00000000E+00
  0.00000000E+00  0.00000000E+00  0.00000000E+00
  0.00000000E+00  0.00000000E+00  0.00000000E+00
  0.00000000E+00  0.00000000E+00  0.00000000E+00
  0.00000000E+00  0.00000000E+00  0.00000000E+00
  0.00000000E+00  0.00000000E+00  0.00000000E+00
  0.00000000E+00  0.00000000E+00  0.00000000E+00
  0.00000000E+00  0.00000000E+00  0.00000000E+00
  0.00000000E+00  0.00000000E+00  0.00000000E+00
  0.00000000E+00  0.00000000E+00  0.00000000E+00
  0.00000000E+00  0.00000000E+00  0.00000000E+00
  0.00000000E+00  0.00000000E+00  0.00000000E+00
  0.00000000E+00  0.00000000E+00  0.00000000E+00
  0.00000000E+00  0.00000000E+00  0.00000000E+00
  0.00000000E+00  0.00000000E+00  0.00000000E+00
  0.00000000E+00  0.00000000E+00  0.00000000E+00
  0.00000000E+00  0.00000000E+00  0.00000000E+00
  0.00000000E+00  0.00000000E+00  0.00000000E+00
  0.00000000E+00  0.00000000E+00  0.00000000E+00
  0.00000000E+00  0.00000000E+00  0.00000000E+00
  0.00000000E+00  0.00000000E+00  0.00000000E+00
  0.00000000E+00  0.00000000E+00  0.00000000E+00
  0.00000000E+00  0.00000000E+00  0.00000000E+00
  0.00000000E+00  0.00000000E+00  0.00000000E+00
  0.00000000E+00  0.00000000E+00  0.00000000E+00
  0.00000000E+00  0.00000000E+00  0.00000000E+00
