 C  O Mg  O                             
   1.00000000000000     
     5.9683928489999998    0.0000000000000000    0.0000000000000000
     0.0000000000000000    5.9683928489999998    0.0000000000000000
     0.0000000000000000    0.0000000000000000   21.3304367064999987
   C    O    Mg   O 
     1     1    16    16
Selective dynamics
Direct
  0.5000000000000000  0.5000000000000000  0.7631638277299049   T   T   T
  0.5000000000000000  0.5000000000000000  0.8167055078460149   T   T   T
  0.2500000000000000  0.2500000000000000  0.3516102430000032   F   F   F
  0.7500000000000000  0.7500000000000000  0.3516102430000032   F   F   F
  0.7500000000000000  0.2500000000000000  0.3516102430000032   F   F   F
  0.2500000000000000  0.7500000000000000  0.3516102430000032   F   F   F
  0.0000000000000000  0.5000000000000000  0.4505367579999984   F   F   F
  0.5000000000000000  0.0000000000000000  0.4505367579999984   F   F   F
  0.0000000000000000  0.0000000000000000  0.4505367579999984   F   F   F
  0.5000000000000000  0.5000000000000000  0.4505367579999984   F   F   F
  0.2503501083245102  0.2503501083245102  0.5500205935152345   T   T   T
  0.7496498916754900  0.7496498916754900  0.5500205935152345   T   T   T
  0.7496498916754900  0.2503501083245102  0.5500205935152345   T   T   T
  0.2503501083245102  0.7496498916754900  0.5500205935152345   T   T   T
 -0.0000000000000000  0.5000000000000000  0.6477927302639130   T   T   T
  0.5000000000000000  0.0000000000000000  0.6477927302639130   T   T   T
 -0.0000000000000000  0.0000000000000000  0.6480092157769323   T   T   T
  0.5000000000000000  0.5000000000000000  0.6505503853624643   T   T   T
  0.2500000000000000  0.2500000000000000  0.4505367579999984   F   F   F
  0.7500000000000000  0.7500000000000000  0.4505367579999984   F   F   F
  0.7500000000000000  0.2500000000000000  0.4505367579999984   F   F   F
  0.2500000000000000  0.7500000000000000  0.4505367579999984   F   F   F
  0.0000000000000000  0.5000000000000000  0.3516102430000032   F   F   F
  0.5000000000000000  0.0000000000000000  0.3516102430000032   F   F   F
  0.0000000000000000  0.0000000000000000  0.3516102430000032   F   F   F
  0.5000000000000000  0.5000000000000000  0.3516102430000032   F   F   F
  0.2489607900241972  0.2489607900241972  0.6501993548346712   T   T   T
  0.7510392099758031  0.7510392099758031  0.6501993548346712   T   T   T
  0.7510392099758031  0.2489607900241972  0.6501993548346712   T   T   T
  0.2489607900241972  0.7510392099758031  0.6501993548346712   T   T   T
 -0.0000000000000000  0.5000000000000000  0.5496742248212808   T   T   T
  0.5000000000000000  0.0000000000000000  0.5496742248212808   T   T   T
 -0.0000000000000000  0.0000000000000000  0.5495258569433736   T   T   T
  0.5000000000000000  0.5000000000000000  0.5500851097405025   T   T   T
 
  0.00000000E+00  0.00000000E+00  0.00000000E+00
  0.00000000E+00  0.00000000E+00  0.00000000E+00
  0.00000000E+00  0.00000000E+00  0.00000000E+00
  0.00000000E+00  0.00000000E+00  0.00000000E+00
  0.00000000E+00  0.00000000E+00  0.00000000E+00
  0.00000000E+00  0.00000000E+00  0.00000000E+00
  0.00000000E+00  0.00000000E+00  0.00000000E+00
  0.00000000E+00  0.00000000E+00  0.00000000E+00
  0.00000000E+00  0.00000000E+00  0.00000000E+00
  0.00000000E+00  0.00000000E+00  0.00000000E+00
  0.00000000E+00  0.00000000E+00  0.00000000E+00
  0.00000000E+00  0.00000000E+00  0.00000000E+00
  0.00000000E+00  0.00000000E+00  0.00000000E+00
  0.00000000E+00  0.00000000E+00  0.00000000E+00
  0.00000000E+00  0.00000000E+00  0.00000000E+00
  0.00000000E+00  0.00000000E+00  0.00000000E+00
  0.00000000E+00  0.00000000E+00  0.00000000E+00
  0.00000000E+00  0.00000000E+00  0.00000000E+00
  0.00000000E+00  0.00000000E+00  0.00000000E+00
  0.00000000E+00  0.00000000E+00  0.00000000E+00
  0.00000000E+00  0.00000000E+00  0.00000000E+00
  0.00000000E+00  0.00000000E+00  0.00000000E+00
  0.00000000E+00  0.00000000E+00  0.00000000E+00
  0.00000000E+00  0.00000000E+00  0.00000000E+00
  0.00000000E+00  0.00000000E+00  0.00000000E+00
  0.00000000E+00  0.00000000E+00  0.00000000E+00
  0.00000000E+00  0.00000000E+00  0.00000000E+00
  0.00000000E+00  0.00000000E+00  0.00000000E+00
  0.00000000E+00  0.00000000E+00  0.00000000E+00
  0.00000000E+00  0.00000000E+00  0.00000000E+00
  0.00000000E+00  0.00000000E+00  0.00000000E+00
  0.00000000E+00  0.00000000E+00  0.00000000E+00
  0.00000000E+00  0.00000000E+00  0.00000000E+00
  0.00000000E+00  0.00000000E+00  0.00000000E+00
