 C  O Mg  O 
 1.0000000000000000
     5.9683928489999998    0.0000000000000000    0.0000000000000000
     0.0000000000000000    5.9683928489999998    0.0000000000000000
     0.0000000000000000    0.0000000000000000   21.3304367064999987
   C   O  Mg   O
   1   1  16  16
Selective dynamics
Direct
  0.5000000000000001  0.5000000000000001  0.7609050342549027   T   T   T
  0.5000000000000001  0.5000000000000001  0.8143981370462869   T   T   T
  0.2500000000000000  0.2500000000000000  0.3516102430000000   F   F   F
  0.7500000000000000  0.7500000000000000  0.3516102430000000   F   F   F
  0.7500000000000000  0.2500000000000000  0.3516102430000000   F   F   F
  0.2500000000000000  0.7500000000000000  0.3516102430000000   F   F   F
  0.0000000000000000  0.5000000000000000  0.4505367579999999   F   F   F
  0.5000000000000000  0.0000000000000000  0.4505367579999999   F   F   F
  0.0000000000000000  0.0000000000000000  0.4505367579999999   F   F   F
  0.5000000000000000  0.5000000000000000  0.4505367579999999   F   F   F
  0.2500000000000000  0.2500000000000000  0.5494632720000000   T   T   T
  0.7500000000000000  0.7500000000000000  0.5494632720000000   T   T   T
  0.7500000000000000  0.2500000000000000  0.5494632720000000   T   T   T
  0.2500000000000000  0.7500000000000000  0.5494632720000000   T   T   T
  0.0000000000000000  0.5000000000000000  0.6483897570000000   T   T   T
  0.5000000000000000  0.0000000000000000  0.6483897570000000   T   T   T
  0.0000000000000000  0.0000000000000000  0.6483897570000000   T   T   T
  0.5000000000000000  0.5000000000000000  0.6483897570000000   T   T   T
  0.2500000000000000  0.2500000000000000  0.4505367579999999   F   F   F
  0.7500000000000000  0.7500000000000000  0.4505367579999999   F   F   F
  0.7500000000000000  0.2500000000000000  0.4505367579999999   F   F   F
  0.2500000000000000  0.7500000000000000  0.4505367579999999   F   F   F
  0.0000000000000000  0.5000000000000000  0.3516102430000000   F   F   F
  0.5000000000000000  0.0000000000000000  0.3516102430000000   F   F   F
  0.0000000000000000  0.0000000000000000  0.3516102430000000   F   F   F
  0.5000000000000000  0.5000000000000000  0.3516102430000000   F   F   F
  0.2500000000000000  0.2500000000000000  0.6483897570000000   T   T   T
  0.7500000000000000  0.7500000000000000  0.6483897570000000   T   T   T
  0.7500000000000000  0.2500000000000000  0.6483897570000000   T   T   T
  0.2500000000000000  0.7500000000000000  0.6483897570000000   T   T   T
  0.0000000000000000  0.5000000000000000  0.5494632720000000   T   T   T
  0.5000000000000000  0.0000000000000000  0.5494632720000000   T   T   T
  0.0000000000000000  0.0000000000000000  0.5494632720000000   T   T   T
  0.5000000000000000  0.5000000000000000  0.5494632720000000   T   T   T
