Mg  O                                   
   1.00000000000000     
     5.9683928489999998    0.0000000000000000    0.0000000000000000
     0.0000000000000000    5.9683928489999998    0.0000000000000000
     0.0000000000000000    0.0000000000000000   21.3304367064999987
   Mg   O 
    16    16
Selective dynamics
Direct
  0.2500000000000000  0.2500000000000000  0.3516102430000032   F   F   F
  0.7500000000000000  0.7500000000000000  0.3516102430000032   F   F   F
  0.7500000000000000  0.2500000000000000  0.3516102430000032   F   F   F
  0.2500000000000000  0.7500000000000000  0.3516102430000032   F   F   F
  0.0000000000000000  0.5000000000000000  0.4505367579999984   F   F   F
  0.5000000000000000  0.0000000000000000  0.4505367579999984   F   F   F
  0.0000000000000000  0.0000000000000000  0.4505367579999984   F   F   F
  0.5000000000000000  0.5000000000000000  0.4505367579999984   F   F   F
  0.2500000000000000  0.2500000000000000  0.5499865548164458   T   T   T
  0.7500000000000000  0.7500000000000000  0.5499865548164458   T   T   T
  0.7500000000000000  0.2500000000000000  0.5499865548164458   T   T   T
  0.2500000000000000  0.7500000000000000  0.5499865548164458   T   T   T
  0.0000000000000000  0.5000000000000000  0.6483975417024272   T   T   T
  0.5000000000000000 -0.0000000000000000  0.6483975417024272   T   T   T
  0.0000000000000000 -0.0000000000000000  0.6483975417024272   T   T   T
  0.5000000000000000  0.5000000000000000  0.6483975417024272   T   T   T
  0.2500000000000000  0.2500000000000000  0.4505367579999984   F   F   F
  0.7500000000000000  0.7500000000000000  0.4505367579999984   F   F   F
  0.7500000000000000  0.2500000000000000  0.4505367579999984   F   F   F
  0.2500000000000000  0.7500000000000000  0.4505367579999984   F   F   F
  0.0000000000000000  0.5000000000000000  0.3516102430000032   F   F   F
  0.5000000000000000  0.0000000000000000  0.3516102430000032   F   F   F
  0.0000000000000000  0.0000000000000000  0.3516102430000032   F   F   F
  0.5000000000000000  0.5000000000000000  0.3516102430000032   F   F   F
  0.2500000000000000  0.2500000000000000  0.6502329431254433   T   T   T
  0.7500000000000000  0.7500000000000000  0.6502329431254433   T   T   T
  0.7500000000000000  0.2500000000000000  0.6502329431254433   T   T   T
  0.2500000000000000  0.7500000000000000  0.6502329431254433   T   T   T
 -0.0000000000000000  0.5000000000000000  0.5496960618650089   T   T   T
  0.5000000000000000 -0.0000000000000000  0.5496960618650089   T   T   T
 -0.0000000000000000  0.0000000000000000  0.5496960618650089   T   T   T
  0.5000000000000000  0.5000000000000000  0.5496960618650089   T   T   T
 
  0.00000000E+00  0.00000000E+00  0.00000000E+00
  0.00000000E+00  0.00000000E+00  0.00000000E+00
  0.00000000E+00  0.00000000E+00  0.00000000E+00
  0.00000000E+00  0.00000000E+00  0.00000000E+00
  0.00000000E+00  0.00000000E+00  0.00000000E+00
  0.00000000E+00  0.00000000E+00  0.00000000E+00
  0.00000000E+00  0.00000000E+00  0.00000000E+00
  0.00000000E+00  0.00000000E+00  0.00000000E+00
  0.00000000E+00  0.00000000E+00  0.00000000E+00
  0.00000000E+00  0.00000000E+00  0.00000000E+00
  0.00000000E+00  0.00000000E+00  0.00000000E+00
  0.00000000E+00  0.00000000E+00  0.00000000E+00
  0.00000000E+00  0.00000000E+00  0.00000000E+00
  0.00000000E+00  0.00000000E+00  0.00000000E+00
  0.00000000E+00  0.00000000E+00  0.00000000E+00
  0.00000000E+00  0.00000000E+00  0.00000000E+00
  0.00000000E+00  0.00000000E+00  0.00000000E+00
  0.00000000E+00  0.00000000E+00  0.00000000E+00
  0.00000000E+00  0.00000000E+00  0.00000000E+00
  0.00000000E+00  0.00000000E+00  0.00000000E+00
  0.00000000E+00  0.00000000E+00  0.00000000E+00
  0.00000000E+00  0.00000000E+00  0.00000000E+00
  0.00000000E+00  0.00000000E+00  0.00000000E+00
  0.00000000E+00  0.00000000E+00  0.00000000E+00
  0.00000000E+00  0.00000000E+00  0.00000000E+00
  0.00000000E+00  0.00000000E+00  0.00000000E+00
  0.00000000E+00  0.00000000E+00  0.00000000E+00
  0.00000000E+00  0.00000000E+00  0.00000000E+00
  0.00000000E+00  0.00000000E+00  0.00000000E+00
  0.00000000E+00  0.00000000E+00  0.00000000E+00
  0.00000000E+00  0.00000000E+00  0.00000000E+00
  0.00000000E+00  0.00000000E+00  0.00000000E+00
