 C  O                                   
   1.0000000000000000     
     8.4409846541513982    0.0000000000000000    0.0000000000000000
     0.0000000000000000    8.4409846541513982    0.0000000000000000
     0.0000000000000000    0.0000000000000000   25.5512308176892482
   C    O 
     1     1
Direct
  0.5000000000000000  0.5000000000000000  0.8004010046956651
  0.5000000000000000  0.5000000000000000  0.8452753744501180

  0.00000000E+00  0.00000000E+00  0.00000000E+00
  0.00000000E+00  0.00000000E+00  0.00000000E+00
