 C  O 
 1.0000000000000000
     8.4409846541513982    0.0000000000000000    0.0000000000000000
     0.0000000000000000    8.4409846541513982    0.0000000000000000
     0.0000000000000000    0.0000000000000000   25.5512308176892482
   C   O
   1   1
Direct
  0.4999999999999999  0.4999999999999999  0.8004010046956626
  0.4999999999999999  0.4999999999999999  0.8452753744501154
