 C  O Mg  O                             
   1.00000000000000     
     8.4405822620844617    0.0000000000000000    0.0000000000000000
     0.0000000000000000    8.4405822620844617    0.0000000000000000
     0.0000000000000000    0.0000000000000000   21.3304366965633463
   C    O    Mg   O 
     1     1    32    32
Selective dynamics
Direct
  0.5000000000000000  0.5000000000000000  0.7639175656246332   T   T   T
  0.5000000000000000  0.5000000000000000  0.8174447520011140   T   T   T
  0.2500000000000000  0.0000000000000000  0.3516102415853695   F   F   F
  0.5000000000000000  0.2500000000000000  0.3516102415853695   F   F   F
  0.2500000000000000  0.2500000000000000  0.4505367471951232   F   F   F
  0.5000000000000000  0.0000000000000000  0.4505367471951232   F   F   F
  0.2500503017040650  0.0000000000000000  0.5498629782350705   T   T   T
  0.5000000000000000  0.2504831920112995  0.5500816113717613   T   T   T
  0.2497137749529313  0.2497137749529313  0.6480050641319735   T   T   T
  0.5000000000000000  0.0000000000000000  0.6481417836863077   T   T   T
  0.2500000000000000  0.5000000000000000  0.3516102415853695   F   F   F
  0.5000000000000000  0.7500000000000000  0.3516102415853695   F   F   F
  0.2500000000000000  0.7500000000000000  0.4505367471951232   F   F   F
  0.5000000000000000  0.5000000000000000  0.4505367471951232   F   F   F
  0.2504831920112995  0.5000000000000000  0.5500816113717613   T   T   T
  0.5000000000000000  0.7495168079887010  0.5500816113717613   T   T   T
  0.2497137749529313  0.7502862250470690  0.6480050641319735   T   T   T
  0.5000000000000000  0.5000000000000000  0.6507759418869092   T   T   T
  0.7500000000000000  0.0000000000000000  0.3516102415853695   F   F   F
  0.0000000000000000  0.2500000000000000  0.3516102415853695   F   F   F
  0.7500000000000000  0.2500000000000000  0.4505367471951232   F   F   F
  0.0000000000000000  0.0000000000000000  0.4505367471951232   F   F   F
  0.7499496982959353  0.0000000000000000  0.5498629782350705   T   T   T
  0.0000000000000000  0.2500503017040650  0.5498629782350705   T   T   T
  0.7502862250470690  0.2497137749529313  0.6480050641319735   T   T   T
  0.0000000000000000  0.0000000000000000  0.6482886591746863   T   T   T
  0.7500000000000000  0.5000000000000000  0.3516102415853695   F   F   F
  0.0000000000000000  0.7500000000000000  0.3516102415853695   F   F   F
  0.7500000000000000  0.7500000000000000  0.4505367471951232   F   F   F
  0.0000000000000000  0.5000000000000000  0.4505367471951232   F   F   F
  0.7495168079887010  0.5000000000000000  0.5500816113717613   T   T   T
  0.0000000000000000  0.7499496982959353  0.5498629782350705   T   T   T
  0.7502862250470690  0.7502862250470690  0.6480050641319735   T   T   T
  0.0000000000000000  0.5000000000000000  0.6481417836863077   T   T   T
  0.2500000000000000  0.0000000000000000  0.4505367471951232   F   F   F
  0.5000000000000000  0.2500000000000000  0.4505367471951232   F   F   F
  0.2500000000000000  0.2500000000000000  0.3516102415853695   F   F   F
  0.5000000000000000  0.0000000000000000  0.3516102415853695   F   F   F
  0.2497146236989982  0.0000000000000000  0.6501422391476057   T   T   T
  0.5000000000000000  0.2487395961155754  0.6501953388966222   T   T   T
  0.2499700240579363  0.2499700240579363  0.5496627420207697   T   T   T
  0.5000000000000000  0.0000000000000000  0.5495904707347611   T   T   T
  0.2500000000000000  0.5000000000000000  0.4505367471951232   F   F   F
  0.5000000000000000  0.7500000000000000  0.4505367471951232   F   F   F
  0.2500000000000000  0.7500000000000000  0.3516102415853695   F   F   F
  0.5000000000000000  0.5000000000000000  0.3516102415853695   F   F   F
  0.2487395961155754  0.5000000000000000  0.6501953388966222   T   T   T
  0.5000000000000000  0.7512604038844242  0.6501953388966222   T   T   T
  0.2499700240579363  0.7500299759420638  0.5496627420207697   T   T   T
  0.5000000000000000  0.5000000000000000  0.5501508203063534   T   T   T
  0.7500000000000000  0.0000000000000000  0.4505367471951232   F   F   F
  0.0000000000000000  0.2500000000000000  0.4505367471951232   F   F   F
  0.7500000000000000  0.2500000000000000  0.3516102415853695   F   F   F
  0.0000000000000000  0.0000000000000000  0.3516102415853695   F   F   F
  0.7502853763010021  0.0000000000000000  0.6501422391476057   T   T   T
  0.0000000000000000  0.2497146236989982  0.6501422391476057   T   T   T
  0.7500299759420638  0.2499700240579363  0.5496627420207697   T   T   T
  0.0000000000000000  0.0000000000000000  0.5496221142224692   T   T   T
  0.7500000000000000  0.5000000000000000  0.4505367471951232   F   F   F
  0.0000000000000000  0.7500000000000000  0.4505367471951232   F   F   F
  0.7500000000000000  0.7500000000000000  0.3516102415853695   F   F   F
  0.0000000000000000  0.5000000000000000  0.3516102415853695   F   F   F
  0.7512604038844242  0.5000000000000000  0.6501953388966222   T   T   T
  0.0000000000000000  0.7502853763010021  0.6501422391476057   T   T   T
  0.7500299759420638  0.7500299759420638  0.5496627420207697   T   T   T
  0.0000000000000000  0.5000000000000000  0.5495904707347611   T   T   T
 
  0.00000000E+00  0.00000000E+00  0.00000000E+00
  0.00000000E+00  0.00000000E+00  0.00000000E+00
  0.00000000E+00  0.00000000E+00  0.00000000E+00
  0.00000000E+00  0.00000000E+00  0.00000000E+00
  0.00000000E+00  0.00000000E+00  0.00000000E+00
  0.00000000E+00  0.00000000E+00  0.00000000E+00
  0.00000000E+00  0.00000000E+00  0.00000000E+00
  0.00000000E+00  0.00000000E+00  0.00000000E+00
  0.00000000E+00  0.00000000E+00  0.00000000E+00
  0.00000000E+00  0.00000000E+00  0.00000000E+00
  0.00000000E+00  0.00000000E+00  0.00000000E+00
  0.00000000E+00  0.00000000E+00  0.00000000E+00
  0.00000000E+00  0.00000000E+00  0.00000000E+00
  0.00000000E+00  0.00000000E+00  0.00000000E+00
  0.00000000E+00  0.00000000E+00  0.00000000E+00
  0.00000000E+00  0.00000000E+00  0.00000000E+00
  0.00000000E+00  0.00000000E+00  0.00000000E+00
  0.00000000E+00  0.00000000E+00  0.00000000E+00
  0.00000000E+00  0.00000000E+00  0.00000000E+00
  0.00000000E+00  0.00000000E+00  0.00000000E+00
  0.00000000E+00  0.00000000E+00  0.00000000E+00
  0.00000000E+00  0.00000000E+00  0.00000000E+00
  0.00000000E+00  0.00000000E+00  0.00000000E+00
  0.00000000E+00  0.00000000E+00  0.00000000E+00
  0.00000000E+00  0.00000000E+00  0.00000000E+00
  0.00000000E+00  0.00000000E+00  0.00000000E+00
  0.00000000E+00  0.00000000E+00  0.00000000E+00
  0.00000000E+00  0.00000000E+00  0.00000000E+00
  0.00000000E+00  0.00000000E+00  0.00000000E+00
  0.00000000E+00  0.00000000E+00  0.00000000E+00
  0.00000000E+00  0.00000000E+00  0.00000000E+00
  0.00000000E+00  0.00000000E+00  0.00000000E+00
  0.00000000E+00  0.00000000E+00  0.00000000E+00
  0.00000000E+00  0.00000000E+00  0.00000000E+00
  0.00000000E+00  0.00000000E+00  0.00000000E+00
  0.00000000E+00  0.00000000E+00  0.00000000E+00
  0.00000000E+00  0.00000000E+00  0.00000000E+00
  0.00000000E+00  0.00000000E+00  0.00000000E+00
  0.00000000E+00  0.00000000E+00  0.00000000E+00
  0.00000000E+00  0.00000000E+00  0.00000000E+00
  0.00000000E+00  0.00000000E+00  0.00000000E+00
  0.00000000E+00  0.00000000E+00  0.00000000E+00
  0.00000000E+00  0.00000000E+00  0.00000000E+00
  0.00000000E+00  0.00000000E+00  0.00000000E+00
  0.00000000E+00  0.00000000E+00  0.00000000E+00
  0.00000000E+00  0.00000000E+00  0.00000000E+00
  0.00000000E+00  0.00000000E+00  0.00000000E+00
  0.00000000E+00  0.00000000E+00  0.00000000E+00
  0.00000000E+00  0.00000000E+00  0.00000000E+00
  0.00000000E+00  0.00000000E+00  0.00000000E+00
  0.00000000E+00  0.00000000E+00  0.00000000E+00
  0.00000000E+00  0.00000000E+00  0.00000000E+00
  0.00000000E+00  0.00000000E+00  0.00000000E+00
  0.00000000E+00  0.00000000E+00  0.00000000E+00
  0.00000000E+00  0.00000000E+00  0.00000000E+00
  0.00000000E+00  0.00000000E+00  0.00000000E+00
  0.00000000E+00  0.00000000E+00  0.00000000E+00
  0.00000000E+00  0.00000000E+00  0.00000000E+00
  0.00000000E+00  0.00000000E+00  0.00000000E+00
  0.00000000E+00  0.00000000E+00  0.00000000E+00
  0.00000000E+00  0.00000000E+00  0.00000000E+00
  0.00000000E+00  0.00000000E+00  0.00000000E+00
  0.00000000E+00  0.00000000E+00  0.00000000E+00
  0.00000000E+00  0.00000000E+00  0.00000000E+00
  0.00000000E+00  0.00000000E+00  0.00000000E+00
  0.00000000E+00  0.00000000E+00  0.00000000E+00
