 C  O Mg  O 
 1.0000000000000000
     8.4405822620844617    0.0000000000000000    0.0000000000000000
     0.0000000000000000    8.4405822620844617    0.0000000000000000
     0.0000000000000000    0.0000000000000000   21.3304366965633463
   C   O  Mg   O
   1   1  32  32
Selective dynamics
Direct
  0.4999999999999999  0.4999999999999999  0.7609050357219509   T   T   T
  0.4999999999999999  0.4999999999999999  0.8143981385382547   T   T   T
  0.2500000000000000  0.0000000000000000  0.3516102415853662   F   F   F
  0.4999999999999999  0.2500000000000000  0.3516102415853662   F   F   F
  0.2500000000000000  0.2500000000000000  0.4505367471951221   F   F   F
  0.4999999999999999  0.0000000000000000  0.4505367471951221   F   F   F
  0.2500000000000000  0.0000000000000000  0.5494632528048780   T   T   T
  0.4999999999999999  0.2500000000000000  0.5494632528048780   T   T   T
  0.2500000000000000  0.2500000000000000  0.6483897584146338   T   T   T
  0.4999999999999999  0.0000000000000000  0.6483897584146338   T   T   T
  0.2500000000000000  0.4999999999999999  0.3516102415853662   F   F   F
  0.4999999999999999  0.7500000000000000  0.3516102415853662   F   F   F
  0.2500000000000000  0.7500000000000000  0.4505367471951221   F   F   F
  0.4999999999999999  0.4999999999999999  0.4505367471951221   F   F   F
  0.2500000000000000  0.4999999999999999  0.5494632528048780   T   T   T
  0.4999999999999999  0.7500000000000000  0.5494632528048780   T   T   T
  0.2500000000000000  0.7500000000000000  0.6483897584146338   T   T   T
  0.4999999999999999  0.4999999999999999  0.6483897584146338   T   T   T
  0.7500000000000000  0.0000000000000000  0.3516102415853662   F   F   F
  0.0000000000000001  0.2500000000000000  0.3516102415853662   F   F   F
  0.7500000000000000  0.2500000000000000  0.4505367471951221   F   F   F
  0.0000000000000001  0.0000000000000000  0.4505367471951221   F   F   F
  0.7500000000000000  0.0000000000000000  0.5494632528048780   T   T   T
  0.0000000000000001  0.2500000000000000  0.5494632528048780   T   T   T
  0.7500000000000000  0.2500000000000000  0.6483897584146338   T   T   T
  0.0000000000000001  0.0000000000000000  0.6483897584146338   T   T   T
  0.7500000000000000  0.4999999999999999  0.3516102415853662   F   F   F
  0.0000000000000001  0.7500000000000000  0.3516102415853662   F   F   F
  0.7500000000000000  0.7500000000000000  0.4505367471951221   F   F   F
  0.0000000000000001  0.4999999999999999  0.4505367471951221   F   F   F
  0.7500000000000000  0.4999999999999999  0.5494632528048780   T   T   T
  0.0000000000000001  0.7500000000000000  0.5494632528048780   T   T   T
  0.7500000000000000  0.7500000000000000  0.6483897584146338   T   T   T
  0.0000000000000001  0.4999999999999999  0.6483897584146338   T   T   T
  0.2500000000000000  0.0000000000000000  0.4505367471951221   F   F   F
  0.4999999999999999  0.2500000000000000  0.4505367471951221   F   F   F
  0.2500000000000000  0.2500000000000000  0.3516102415853662   F   F   F
  0.4999999999999999  0.0000000000000000  0.3516102415853662   F   F   F
  0.2500000000000000  0.0000000000000000  0.6483897584146338   T   T   T
  0.4999999999999999  0.2500000000000000  0.6483897584146338   T   T   T
  0.2500000000000000  0.2500000000000000  0.5494632528048780   T   T   T
  0.4999999999999999  0.0000000000000000  0.5494632528048780   T   T   T
  0.2500000000000000  0.4999999999999999  0.4505367471951221   F   F   F
  0.4999999999999999  0.7500000000000000  0.4505367471951221   F   F   F
  0.2500000000000000  0.7500000000000000  0.3516102415853662   F   F   F
  0.4999999999999999  0.4999999999999999  0.3516102415853662   F   F   F
  0.2500000000000000  0.4999999999999999  0.6483897584146338   T   T   T
  0.4999999999999999  0.7500000000000000  0.6483897584146338   T   T   T
  0.2500000000000000  0.7500000000000000  0.5494632528048780   T   T   T
  0.4999999999999999  0.4999999999999999  0.5494632528048780   T   T   T
  0.7500000000000000  0.0000000000000000  0.4505367471951221   F   F   F
  0.0000000000000001  0.2500000000000000  0.4505367471951221   F   F   F
  0.7500000000000000  0.2500000000000000  0.3516102415853662   F   F   F
  0.0000000000000001  0.0000000000000000  0.3516102415853662   F   F   F
  0.7500000000000000  0.0000000000000000  0.6483897584146338   T   T   T
  0.0000000000000001  0.2500000000000000  0.6483897584146338   T   T   T
  0.7500000000000000  0.2500000000000000  0.5494632528048780   T   T   T
  0.0000000000000001  0.0000000000000000  0.5494632528048780   T   T   T
  0.7500000000000000  0.4999999999999999  0.4505367471951221   F   F   F
  0.0000000000000001  0.7500000000000000  0.4505367471951221   F   F   F
  0.7500000000000000  0.7500000000000000  0.3516102415853662   F   F   F
  0.0000000000000001  0.4999999999999999  0.3516102415853662   F   F   F
  0.7500000000000000  0.4999999999999999  0.6483897584146338   T   T   T
  0.0000000000000001  0.7500000000000000  0.6483897584146338   T   T   T
  0.7500000000000000  0.7500000000000000  0.5494632528048780   T   T   T
  0.0000000000000001  0.4999999999999999  0.5494632528048780   T   T   T
