Mg  O 
 1.0000000000000000
     8.4671426306338464    0.0000000000000000    0.0000000000000000
     0.0000000000000000    8.4671426306338464    0.0000000000000000
     0.0000000000000000    0.0000000000000000   21.3503569729753835
  Mg   O
  32  32
Selective dynamics
Direct
  0.2500000000000000  0.0000000000000000  0.3512821827519449   F   F   F
  0.4999999999999999  0.2500000000000000  0.3512821827519449   F   F   F
  0.2500000000000000  0.2500000000000000  0.4504273942506483   F   F   F
  0.4999999999999999  0.0000000000000000  0.4504273942506483   F   F   F
  0.2500000000000000  0.0000000000000000  0.5495726057493517   T   T   T
  0.4999999999999999  0.2500000000000000  0.5495726057493517   T   T   T
  0.2500000000000000  0.2500000000000000  0.6487178172480551   T   T   T
  0.4999999999999999  0.0000000000000000  0.6487178172480551   T   T   T
  0.2500000000000000  0.4999999999999999  0.3512821827519449   F   F   F
  0.4999999999999999  0.7500000000000000  0.3512821827519449   F   F   F
  0.2500000000000000  0.7500000000000000  0.4504273942506483   F   F   F
  0.4999999999999999  0.4999999999999999  0.4504273942506483   F   F   F
  0.2500000000000000  0.4999999999999999  0.5495726057493517   T   T   T
  0.4999999999999999  0.7500000000000000  0.5495726057493517   T   T   T
  0.2500000000000000  0.7500000000000000  0.6487178172480551   T   T   T
  0.4999999999999999  0.4999999999999999  0.6487178172480551   T   T   T
  0.7500000000000000  0.0000000000000000  0.3512821827519449   F   F   F
  0.0000000000000001  0.2500000000000000  0.3512821827519449   F   F   F
  0.7500000000000000  0.2500000000000000  0.4504273942506483   F   F   F
  0.0000000000000001  0.0000000000000000  0.4504273942506483   F   F   F
  0.7500000000000000  0.0000000000000000  0.5495726057493517   T   T   T
  0.0000000000000001  0.2500000000000000  0.5495726057493517   T   T   T
  0.7500000000000000  0.2500000000000000  0.6487178172480551   T   T   T
  0.0000000000000001  0.0000000000000000  0.6487178172480551   T   T   T
  0.7500000000000000  0.4999999999999999  0.3512821827519449   F   F   F
  0.0000000000000001  0.7500000000000000  0.3512821827519449   F   F   F
  0.7500000000000000  0.7500000000000000  0.4504273942506483   F   F   F
  0.0000000000000001  0.4999999999999999  0.4504273942506483   F   F   F
  0.7500000000000000  0.4999999999999999  0.5495726057493517   T   T   T
  0.0000000000000001  0.7500000000000000  0.5495726057493517   T   T   T
  0.7500000000000000  0.7500000000000000  0.6487178172480551   T   T   T
  0.0000000000000001  0.4999999999999999  0.6487178172480551   T   T   T
  0.2500000000000000  0.0000000000000000  0.4504273942506483   F   F   F
  0.4999999999999999  0.2500000000000000  0.4504273942506483   F   F   F
  0.2500000000000000  0.2500000000000000  0.3512821827519449   F   F   F
  0.4999999999999999  0.0000000000000000  0.3512821827519449   F   F   F
  0.2500000000000000  0.0000000000000000  0.6487178172480551   T   T   T
  0.4999999999999999  0.2500000000000000  0.6487178172480551   T   T   T
  0.2500000000000000  0.2500000000000000  0.5495726057493517   T   T   T
  0.4999999999999999  0.0000000000000000  0.5495726057493517   T   T   T
  0.2500000000000000  0.4999999999999999  0.4504273942506483   F   F   F
  0.4999999999999999  0.7500000000000000  0.4504273942506483   F   F   F
  0.2500000000000000  0.7500000000000000  0.3512821827519449   F   F   F
  0.4999999999999999  0.4999999999999999  0.3512821827519449   F   F   F
  0.2500000000000000  0.4999999999999999  0.6487178172480551   T   T   T
  0.4999999999999999  0.7500000000000000  0.6487178172480551   T   T   T
  0.2500000000000000  0.7500000000000000  0.5495726057493517   T   T   T
  0.4999999999999999  0.4999999999999999  0.5495726057493517   T   T   T
  0.7500000000000000  0.0000000000000000  0.4504273942506483   F   F   F
  0.0000000000000001  0.2500000000000000  0.4504273942506483   F   F   F
  0.7500000000000000  0.2500000000000000  0.3512821827519449   F   F   F
  0.0000000000000001  0.0000000000000000  0.3512821827519449   F   F   F
  0.7500000000000000  0.0000000000000000  0.6487178172480551   T   T   T
  0.0000000000000001  0.2500000000000000  0.6487178172480551   T   T   T
  0.7500000000000000  0.2500000000000000  0.5495726057493517   T   T   T
  0.0000000000000001  0.0000000000000000  0.5495726057493517   T   T   T
  0.7500000000000000  0.4999999999999999  0.4504273942506483   F   F   F
  0.0000000000000001  0.7500000000000000  0.4504273942506483   F   F   F
  0.7500000000000000  0.7500000000000000  0.3512821827519449   F   F   F
  0.0000000000000001  0.4999999999999999  0.3512821827519449   F   F   F
  0.7500000000000000  0.4999999999999999  0.6487178172480551   T   T   T
  0.0000000000000001  0.7500000000000000  0.6487178172480551   T   T   T
  0.7500000000000000  0.7500000000000000  0.5495726057493517   T   T   T
  0.0000000000000001  0.4999999999999999  0.5495726057493517   T   T   T
