 C  O Mg  O                             
   1.0000000000000000     
     8.4409846541513982    0.0000000000000000    0.0000000000000000
     0.0000000000000000    8.4409846541513982    0.0000000000000000
     0.0000000000000000    0.0000000000000000   21.3307384906135482
   C    O    Mg   O 
     1     1    32    32
Direct
  0.5000000000000000  0.5000000000000000  0.7678187157795620
  0.5000000000000000  0.5000000000000000  0.8215824340476487
  0.0000000000000000  0.7500000000000000  0.3516052668922072
  0.2500000000000000  0.0000000000000000  0.3516052668922072
  0.0000000000000000  0.0000000000000000  0.4505350889640667
  0.2500000000000000  0.7500000000000000  0.4505350889640667
  0.0000000000000000  0.7499392679099373  0.5500832391147199
  0.2500607320900627  0.0000000000000000  0.5500832391147199
  0.0000000000000000  0.0000000000000000  0.6487453091442390
  0.2498583271629329  0.7501416728370671  0.6485695471241470
  0.0000000000000000  0.2500000000000000  0.3516052668922072
  0.2500000000000000  0.5000000000000000  0.3516052668922072
  0.0000000000000000  0.5000000000000000  0.4505350889640667
  0.2500000000000000  0.2500000000000000  0.4505350889640667
  0.0000000000000000  0.2500607320900627  0.5500832391147199
  0.2503783790197005  0.5000000000000000  0.5502195237862182
  0.0000000000000000  0.5000000000000000  0.6486152804400547
  0.2498583271629329  0.2498583271629329  0.6485695471241470
  0.5000000000000000  0.7500000000000000  0.3516052668922072
  0.7500000000000000  0.0000000000000000  0.3516052668922072
  0.5000000000000000  0.0000000000000000  0.4505350889640667
  0.7500000000000000  0.7500000000000000  0.4505350889640667
  0.5000000000000000  0.7496216209802995  0.5502195237862182
  0.7499392679099373  0.0000000000000000  0.5500832391147199
  0.5000000000000000  0.0000000000000000  0.6486152804400547
  0.7501416728370671  0.7501416728370671  0.6485695471241470
  0.5000000000000000  0.2500000000000000  0.3516052668922072
  0.7500000000000000  0.5000000000000000  0.3516052668922072
  0.5000000000000000  0.5000000000000000  0.4505350889640667
  0.7500000000000000  0.2500000000000000  0.4505350889640667
  0.5000000000000000  0.2503783790197005  0.5502195237862182
  0.7496216209802995  0.5000000000000000  0.5502195237862182
  0.5000000000000000  0.5000000000000000  0.6506169601488239
  0.7501416728370671  0.2498583271629329  0.6485695471241470
  0.0000000000000000  0.7500000000000000  0.4505350889640667
  0.2500000000000000  0.0000000000000000  0.4505350889640667
  0.0000000000000000  0.0000000000000000  0.3516052668922072
  0.2500000000000000  0.7500000000000000  0.3516052668922072
  0.0000000000000000  0.7502185328875299  0.6509792551751303
  0.2497814671124701  0.0000000000000000  0.6509792551751303
  0.0000000000000000  0.0000000000000000  0.5498098904919857
  0.2499457704965096  0.7500542295034904  0.5498591131547030
  0.0000000000000000  0.2500000000000000  0.4505350889640667
  0.2500000000000000  0.5000000000000000  0.4505350889640667
  0.0000000000000000  0.5000000000000000  0.3516052668922072
  0.2500000000000000  0.2500000000000000  0.3516052668922072
  0.0000000000000000  0.2497814671124701  0.6509792551751303
  0.2488227096466176  0.5000000000000000  0.6508828716772683
  0.0000000000000000  0.5000000000000000  0.5497626655940238
  0.2499457704965096  0.2499457704965096  0.5498591131547030
  0.5000000000000000  0.7500000000000000  0.4505350889640667
  0.7500000000000000  0.0000000000000000  0.4505350889640667
  0.5000000000000000  0.0000000000000000  0.3516052668922072
  0.7500000000000000  0.7500000000000000  0.3516052668922072
  0.5000000000000000  0.7511772903533824  0.6508828716772683
  0.7502185328875299  0.0000000000000000  0.6509792551751303
  0.5000000000000000  0.0000000000000000  0.5497626655940238
  0.7500542295034904  0.7500542295034904  0.5498591131547030
  0.5000000000000000  0.2500000000000000  0.4505350889640667
  0.7500000000000000  0.5000000000000000  0.4505350889640667
  0.5000000000000000  0.5000000000000000  0.3516052668922072
  0.7500000000000000  0.2500000000000000  0.3516052668922072
  0.5000000000000000  0.2488227096466176  0.6508828716772683
  0.7511772903533824  0.5000000000000000  0.6508828716772683
  0.5000000000000000  0.5000000000000000  0.5502313568597543
  0.7500542295034904  0.2499457704965096  0.5498591131547030

  0.00000000E+00  0.00000000E+00  0.00000000E+00
  0.00000000E+00  0.00000000E+00  0.00000000E+00
  0.00000000E+00  0.00000000E+00  0.00000000E+00
  0.00000000E+00  0.00000000E+00  0.00000000E+00
  0.00000000E+00  0.00000000E+00  0.00000000E+00
  0.00000000E+00  0.00000000E+00  0.00000000E+00
  0.00000000E+00  0.00000000E+00  0.00000000E+00
  0.00000000E+00  0.00000000E+00  0.00000000E+00
  0.00000000E+00  0.00000000E+00  0.00000000E+00
  0.00000000E+00  0.00000000E+00  0.00000000E+00
  0.00000000E+00  0.00000000E+00  0.00000000E+00
  0.00000000E+00  0.00000000E+00  0.00000000E+00
  0.00000000E+00  0.00000000E+00  0.00000000E+00
  0.00000000E+00  0.00000000E+00  0.00000000E+00
  0.00000000E+00  0.00000000E+00  0.00000000E+00
  0.00000000E+00  0.00000000E+00  0.00000000E+00
  0.00000000E+00  0.00000000E+00  0.00000000E+00
  0.00000000E+00  0.00000000E+00  0.00000000E+00
  0.00000000E+00  0.00000000E+00  0.00000000E+00
  0.00000000E+00  0.00000000E+00  0.00000000E+00
  0.00000000E+00  0.00000000E+00  0.00000000E+00
  0.00000000E+00  0.00000000E+00  0.00000000E+00
  0.00000000E+00  0.00000000E+00  0.00000000E+00
  0.00000000E+00  0.00000000E+00  0.00000000E+00
  0.00000000E+00  0.00000000E+00  0.00000000E+00
  0.00000000E+00  0.00000000E+00  0.00000000E+00
  0.00000000E+00  0.00000000E+00  0.00000000E+00
  0.00000000E+00  0.00000000E+00  0.00000000E+00
  0.00000000E+00  0.00000000E+00  0.00000000E+00
  0.00000000E+00  0.00000000E+00  0.00000000E+00
  0.00000000E+00  0.00000000E+00  0.00000000E+00
  0.00000000E+00  0.00000000E+00  0.00000000E+00
  0.00000000E+00  0.00000000E+00  0.00000000E+00
  0.00000000E+00  0.00000000E+00  0.00000000E+00
  0.00000000E+00  0.00000000E+00  0.00000000E+00
  0.00000000E+00  0.00000000E+00  0.00000000E+00
  0.00000000E+00  0.00000000E+00  0.00000000E+00
  0.00000000E+00  0.00000000E+00  0.00000000E+00
  0.00000000E+00  0.00000000E+00  0.00000000E+00
  0.00000000E+00  0.00000000E+00  0.00000000E+00
  0.00000000E+00  0.00000000E+00  0.00000000E+00
  0.00000000E+00  0.00000000E+00  0.00000000E+00
  0.00000000E+00  0.00000000E+00  0.00000000E+00
  0.00000000E+00  0.00000000E+00  0.00000000E+00
  0.00000000E+00  0.00000000E+00  0.00000000E+00
  0.00000000E+00  0.00000000E+00  0.00000000E+00
  0.00000000E+00  0.00000000E+00  0.00000000E+00
  0.00000000E+00  0.00000000E+00  0.00000000E+00
  0.00000000E+00  0.00000000E+00  0.00000000E+00
  0.00000000E+00  0.00000000E+00  0.00000000E+00
  0.00000000E+00  0.00000000E+00  0.00000000E+00
  0.00000000E+00  0.00000000E+00  0.00000000E+00
  0.00000000E+00  0.00000000E+00  0.00000000E+00
  0.00000000E+00  0.00000000E+00  0.00000000E+00
  0.00000000E+00  0.00000000E+00  0.00000000E+00
  0.00000000E+00  0.00000000E+00  0.00000000E+00
  0.00000000E+00  0.00000000E+00  0.00000000E+00
  0.00000000E+00  0.00000000E+00  0.00000000E+00
  0.00000000E+00  0.00000000E+00  0.00000000E+00
  0.00000000E+00  0.00000000E+00  0.00000000E+00
  0.00000000E+00  0.00000000E+00  0.00000000E+00
  0.00000000E+00  0.00000000E+00  0.00000000E+00
  0.00000000E+00  0.00000000E+00  0.00000000E+00
  0.00000000E+00  0.00000000E+00  0.00000000E+00
  0.00000000E+00  0.00000000E+00  0.00000000E+00
  0.00000000E+00  0.00000000E+00  0.00000000E+00
