 C  O 
 1.0000000000000000
     8.4409846541513982    0.0000000000000000    0.0000000000000000
     0.0000000000000000    8.4409846541513982    0.0000000000000000
     0.0000000000000000    0.0000000000000000   21.3307384906135482
   C   O
   1   1
Direct
  0.4999999999999999  0.4999999999999999  0.7609084185133007
  0.4999999999999999  0.4999999999999999  0.8146616150985438
