Mg  O 
 1.0000000000000000
     8.5461136257066865    0.0000000000000000    0.0000000000000000
     0.0000000000000000    8.5461136257066865    0.0000000000000000
     0.0000000000000000    0.0000000000000000   21.4095852192800145
  Mg   O
  32  32
Selective dynamics
Direct
  0.0000000000000000  0.7500000000000001  0.3503103830916823   F   F   F
  0.2500000000000000  0.0000000000000001  0.3503103830916823   F   F   F
  0.0000000000000000  0.0000000000000001  0.4501034610305608   F   F   F
  0.2500000000000000  0.7500000000000001  0.4501034610305608   F   F   F
  0.0000000000000000  0.7500000000000001  0.5498965389694394   T   T   T
  0.2500000000000000  0.0000000000000001  0.5498965389694394   T   T   T
  0.0000000000000000  0.0000000000000001  0.6496896169083177   T   T   T
  0.2500000000000000  0.7500000000000001  0.6496896169083177   T   T   T
  0.0000000000000000  0.2500000000000001  0.3503103830916823   F   F   F
  0.2500000000000000  0.4999999999999999  0.3503103830916823   F   F   F
  0.0000000000000000  0.4999999999999999  0.4501034610305608   F   F   F
  0.2500000000000000  0.2500000000000001  0.4501034610305608   F   F   F
  0.0000000000000000  0.2500000000000001  0.5498965389694394   T   T   T
  0.2500000000000000  0.4999999999999999  0.5498965389694394   T   T   T
  0.0000000000000000  0.4999999999999999  0.6496896169083177   T   T   T
  0.2500000000000000  0.2500000000000001  0.6496896169083177   T   T   T
  0.4999999999999999  0.7500000000000001  0.3503103830916823   F   F   F
  0.7500000000000000  0.0000000000000001  0.3503103830916823   F   F   F
  0.4999999999999999  0.0000000000000001  0.4501034610305608   F   F   F
  0.7500000000000000  0.7500000000000001  0.4501034610305608   F   F   F
  0.4999999999999999  0.7500000000000001  0.5498965389694394   T   T   T
  0.7500000000000000  0.0000000000000001  0.5498965389694394   T   T   T
  0.4999999999999999  0.0000000000000001  0.6496896169083177   T   T   T
  0.7500000000000000  0.7500000000000001  0.6496896169083177   T   T   T
  0.4999999999999999  0.2500000000000001  0.3503103830916823   F   F   F
  0.7500000000000000  0.4999999999999999  0.3503103830916823   F   F   F
  0.4999999999999999  0.4999999999999999  0.4501034610305608   F   F   F
  0.7500000000000000  0.2500000000000001  0.4501034610305608   F   F   F
  0.4999999999999999  0.2500000000000001  0.5498965389694394   T   T   T
  0.7500000000000000  0.4999999999999999  0.5498965389694394   T   T   T
  0.4999999999999999  0.4999999999999999  0.6496896169083177   T   T   T
  0.7500000000000000  0.2500000000000001  0.6496896169083177   T   T   T
  0.0000000000000000  0.7500000000000001  0.4501034610305608   F   F   F
  0.2500000000000000  0.0000000000000001  0.4501034610305608   F   F   F
  0.0000000000000000  0.0000000000000001  0.3503103830916823   F   F   F
  0.2500000000000000  0.7500000000000001  0.3503103830916823   F   F   F
  0.0000000000000000  0.7500000000000001  0.6496896169083177   T   T   T
  0.2500000000000000  0.0000000000000001  0.6496896169083177   T   T   T
  0.0000000000000000  0.0000000000000001  0.5498965389694394   T   T   T
  0.2500000000000000  0.7500000000000001  0.5498965389694394   T   T   T
  0.0000000000000000  0.2500000000000001  0.4501034610305608   F   F   F
  0.2500000000000000  0.4999999999999999  0.4501034610305608   F   F   F
  0.0000000000000000  0.4999999999999999  0.3503103830916823   F   F   F
  0.2500000000000000  0.2500000000000001  0.3503103830916823   F   F   F
  0.0000000000000000  0.2500000000000001  0.6496896169083177   T   T   T
  0.2500000000000000  0.4999999999999999  0.6496896169083177   T   T   T
  0.0000000000000000  0.4999999999999999  0.5498965389694394   T   T   T
  0.2500000000000000  0.2500000000000001  0.5498965389694394   T   T   T
  0.4999999999999999  0.7500000000000001  0.4501034610305608   F   F   F
  0.7500000000000000  0.0000000000000001  0.4501034610305608   F   F   F
  0.4999999999999999  0.0000000000000001  0.3503103830916823   F   F   F
  0.7500000000000000  0.7500000000000001  0.3503103830916823   F   F   F
  0.4999999999999999  0.7500000000000001  0.6496896169083177   T   T   T
  0.7500000000000000  0.0000000000000001  0.6496896169083177   T   T   T
  0.4999999999999999  0.0000000000000001  0.5498965389694394   T   T   T
  0.7500000000000000  0.7500000000000001  0.5498965389694394   T   T   T
  0.4999999999999999  0.2500000000000001  0.4501034610305608   F   F   F
  0.7500000000000000  0.4999999999999999  0.4501034610305608   F   F   F
  0.4999999999999999  0.4999999999999999  0.3503103830916823   F   F   F
  0.7500000000000000  0.2500000000000001  0.3503103830916823   F   F   F
  0.4999999999999999  0.2500000000000001  0.6496896169083177   T   T   T
  0.7500000000000000  0.4999999999999999  0.6496896169083177   T   T   T
  0.4999999999999999  0.4999999999999999  0.5498965389694394   T   T   T
  0.7500000000000000  0.2500000000000001  0.5498965389694394   T   T   T
