 C  O Mg  O                             
   1.0000000000000000     
     8.4409846541513982    0.0000000000000000    0.0000000000000000
     0.0000000000000000    8.4409846541513982    0.0000000000000000
     0.0000000000000000    0.0000000000000000   21.3307384906135482
   C    O    Mg   O 
     1     1    32    32
Selective dynamics
Direct
  0.5000000000000000  0.5000000000000000  0.7658507417356143   T   T   T
  0.5000000000000000  0.5000000000000000  0.8196180369827517   T   T   T
  0.0000000000000000  0.7500000000000000  0.3516052668922072   F   F   F
  0.2500000000000000  0.0000000000000000  0.3516052668922072   F   F   F
  0.0000000000000000  0.0000000000000000  0.4505350889640667   F   F   F
  0.2500000000000000  0.7500000000000000  0.4505350889640667   F   F   F
 -0.0000000000000000  0.7499582103152014  0.5500870716669281   T   T   T
  0.2500417896847985  0.0000000000000000  0.5500870716669281   T   T   T
 -0.0000000000000000  0.0000000000000000  0.6488120079035090   T   T   T
  0.2498860632232372  0.7501139367767630  0.6485709741489684   T   T   T
  0.0000000000000000  0.2500000000000000  0.3516052668922072   F   F   F
  0.2500000000000000  0.5000000000000000  0.3516052668922072   F   F   F
  0.0000000000000000  0.5000000000000000  0.4505350889640667   F   F   F
  0.2500000000000000  0.2500000000000000  0.4505350889640667   F   F   F
 -0.0000000000000000  0.2500417896847985  0.5500870716669281   T   T   T
  0.2503949314615324  0.5000000000000000  0.5502221349830391   T   T   T
 -0.0000000000000000  0.5000000000000000  0.6486101731966508   T   T   T
  0.2498860632232372  0.2498860632232372  0.6485709741489684   T   T   T
  0.5000000000000000  0.7500000000000000  0.3516052668922072   F   F   F
  0.7500000000000000  0.0000000000000000  0.3516052668922072   F   F   F
  0.5000000000000000  0.0000000000000000  0.4505350889640667   F   F   F
  0.7500000000000000  0.7500000000000000  0.4505350889640667   F   F   F
  0.5000000000000000  0.7496050685384678  0.5502221349830391   T   T   T
  0.7499582103152014  0.0000000000000000  0.5500870716669281   T   T   T
  0.5000000000000000  0.0000000000000000  0.6486101731966508   T   T   T
  0.7501139367767630  0.7501139367767630  0.6485709741489684   T   T   T
  0.5000000000000000  0.2500000000000000  0.3516052668922072   F   F   F
  0.7500000000000000  0.5000000000000000  0.3516052668922072   F   F   F
  0.5000000000000000  0.5000000000000000  0.4505350889640667   F   F   F
  0.7500000000000000  0.2500000000000000  0.4505350889640667   F   F   F
  0.5000000000000000  0.2503949314615324  0.5502221349830391   T   T   T
  0.7496050685384678  0.5000000000000000  0.5502221349830391   T   T   T
  0.5000000000000000  0.5000000000000000  0.6506275063056116   T   T   T
  0.7501139367767630  0.2498860632232372  0.6485709741489684   T   T   T
  0.0000000000000000  0.7500000000000000  0.4505350889640667   F   F   F
  0.2500000000000000  0.0000000000000000  0.4505350889640667   F   F   F
  0.0000000000000000  0.0000000000000000  0.3516052668922072   F   F   F
  0.2500000000000000  0.7500000000000000  0.3516052668922072   F   F   F
 -0.0000000000000000  0.7502061567032275  0.6510168327551227   T   T   T
  0.2497938432967723  0.0000000000000000  0.6510168327551227   T   T   T
 -0.0000000000000000  0.0000000000000000  0.5498668656223658   T   T   T
  0.2499338273226595  0.7500661726773405  0.5498551312044070   T   T   T
  0.0000000000000000  0.2500000000000000  0.4505350889640667   F   F   F
  0.2500000000000000  0.5000000000000000  0.4505350889640667   F   F   F
  0.0000000000000000  0.5000000000000000  0.3516052668922072   F   F   F
  0.2500000000000000  0.2500000000000000  0.3516052668922072   F   F   F
 -0.0000000000000000  0.2497938432967723  0.6510168327551227   T   T   T
  0.2488508580820209  0.5000000000000000  0.6508658327693120   T   T   T
 -0.0000000000000000  0.5000000000000000  0.5497686079841921   T   T   T
  0.2499338273226595  0.2499338273226595  0.5498551312044070   T   T   T
  0.5000000000000000  0.7500000000000000  0.4505350889640667   F   F   F
  0.7500000000000000  0.0000000000000000  0.4505350889640667   F   F   F
  0.5000000000000000  0.0000000000000000  0.3516052668922072   F   F   F
  0.7500000000000000  0.7500000000000000  0.3516052668922072   F   F   F
  0.5000000000000000  0.7511491419179790  0.6508658327693120   T   T   T
  0.7502061567032275  0.0000000000000000  0.6510168327551227   T   T   T
  0.5000000000000000  0.0000000000000000  0.5497686079841921   T   T   T
  0.7500661726773405  0.7500661726773405  0.5498551312044070   T   T   T
  0.5000000000000000  0.2500000000000000  0.4505350889640667   F   F   F
  0.7500000000000000  0.5000000000000000  0.4505350889640667   F   F   F
  0.5000000000000000  0.5000000000000000  0.3516052668922072   F   F   F
  0.7500000000000000  0.2500000000000000  0.3516052668922072   F   F   F
  0.5000000000000000  0.2488508580820209  0.6508658327693120   T   T   T
  0.7511491419179790  0.5000000000000000  0.6508658327693120   T   T   T
  0.5000000000000000  0.5000000000000000  0.5502006897804786   T   T   T
  0.7500661726773405  0.2499338273226595  0.5498551312044070   T   T   T

  0.00000000E+00  0.00000000E+00  0.00000000E+00
  0.00000000E+00  0.00000000E+00  0.00000000E+00
  0.00000000E+00  0.00000000E+00  0.00000000E+00
  0.00000000E+00  0.00000000E+00  0.00000000E+00
  0.00000000E+00  0.00000000E+00  0.00000000E+00
  0.00000000E+00  0.00000000E+00  0.00000000E+00
  0.00000000E+00  0.00000000E+00  0.00000000E+00
  0.00000000E+00  0.00000000E+00  0.00000000E+00
  0.00000000E+00  0.00000000E+00  0.00000000E+00
  0.00000000E+00  0.00000000E+00  0.00000000E+00
  0.00000000E+00  0.00000000E+00  0.00000000E+00
  0.00000000E+00  0.00000000E+00  0.00000000E+00
  0.00000000E+00  0.00000000E+00  0.00000000E+00
  0.00000000E+00  0.00000000E+00  0.00000000E+00
  0.00000000E+00  0.00000000E+00  0.00000000E+00
  0.00000000E+00  0.00000000E+00  0.00000000E+00
  0.00000000E+00  0.00000000E+00  0.00000000E+00
  0.00000000E+00  0.00000000E+00  0.00000000E+00
  0.00000000E+00  0.00000000E+00  0.00000000E+00
  0.00000000E+00  0.00000000E+00  0.00000000E+00
  0.00000000E+00  0.00000000E+00  0.00000000E+00
  0.00000000E+00  0.00000000E+00  0.00000000E+00
  0.00000000E+00  0.00000000E+00  0.00000000E+00
  0.00000000E+00  0.00000000E+00  0.00000000E+00
  0.00000000E+00  0.00000000E+00  0.00000000E+00
  0.00000000E+00  0.00000000E+00  0.00000000E+00
  0.00000000E+00  0.00000000E+00  0.00000000E+00
  0.00000000E+00  0.00000000E+00  0.00000000E+00
  0.00000000E+00  0.00000000E+00  0.00000000E+00
  0.00000000E+00  0.00000000E+00  0.00000000E+00
  0.00000000E+00  0.00000000E+00  0.00000000E+00
  0.00000000E+00  0.00000000E+00  0.00000000E+00
  0.00000000E+00  0.00000000E+00  0.00000000E+00
  0.00000000E+00  0.00000000E+00  0.00000000E+00
  0.00000000E+00  0.00000000E+00  0.00000000E+00
  0.00000000E+00  0.00000000E+00  0.00000000E+00
  0.00000000E+00  0.00000000E+00  0.00000000E+00
  0.00000000E+00  0.00000000E+00  0.00000000E+00
  0.00000000E+00  0.00000000E+00  0.00000000E+00
  0.00000000E+00  0.00000000E+00  0.00000000E+00
  0.00000000E+00  0.00000000E+00  0.00000000E+00
  0.00000000E+00  0.00000000E+00  0.00000000E+00
  0.00000000E+00  0.00000000E+00  0.00000000E+00
  0.00000000E+00  0.00000000E+00  0.00000000E+00
  0.00000000E+00  0.00000000E+00  0.00000000E+00
  0.00000000E+00  0.00000000E+00  0.00000000E+00
  0.00000000E+00  0.00000000E+00  0.00000000E+00
  0.00000000E+00  0.00000000E+00  0.00000000E+00
  0.00000000E+00  0.00000000E+00  0.00000000E+00
  0.00000000E+00  0.00000000E+00  0.00000000E+00
  0.00000000E+00  0.00000000E+00  0.00000000E+00
  0.00000000E+00  0.00000000E+00  0.00000000E+00
  0.00000000E+00  0.00000000E+00  0.00000000E+00
  0.00000000E+00  0.00000000E+00  0.00000000E+00
  0.00000000E+00  0.00000000E+00  0.00000000E+00
  0.00000000E+00  0.00000000E+00  0.00000000E+00
  0.00000000E+00  0.00000000E+00  0.00000000E+00
  0.00000000E+00  0.00000000E+00  0.00000000E+00
  0.00000000E+00  0.00000000E+00  0.00000000E+00
  0.00000000E+00  0.00000000E+00  0.00000000E+00
  0.00000000E+00  0.00000000E+00  0.00000000E+00
  0.00000000E+00  0.00000000E+00  0.00000000E+00
  0.00000000E+00  0.00000000E+00  0.00000000E+00
  0.00000000E+00  0.00000000E+00  0.00000000E+00
  0.00000000E+00  0.00000000E+00  0.00000000E+00
  0.00000000E+00  0.00000000E+00  0.00000000E+00
