 C  O Mg  O 
 1.0000000000000000
     8.4409846541513982    0.0000000000000000    0.0000000000000000
     0.0000000000000000    8.4409846541513982    0.0000000000000000
     0.0000000000000000    0.0000000000000000   21.3307384906135482
   C   O  Mg   O
   1   1  32  32
Selective dynamics
Direct
  0.4999999999999999  0.4999999999999999  0.7609084185133007   T   T   T
  0.4999999999999999  0.4999999999999999  0.8146616150985438   T   T   T
  0.0000000000000000  0.7500000000000001  0.3516052668922047   F   F   F
  0.2500000000000000  0.0000000000000001  0.3516052668922047   F   F   F
  0.0000000000000000  0.0000000000000001  0.4505350889640682   F   F   F
  0.2500000000000000  0.7500000000000001  0.4505350889640682   F   F   F
  0.0000000000000000  0.7500000000000001  0.5494649110359319   T   T   T
  0.2500000000000000  0.0000000000000001  0.5494649110359319   T   T   T
  0.0000000000000000  0.0000000000000001  0.6483947331077953   T   T   T
  0.2500000000000000  0.7500000000000001  0.6483947331077953   T   T   T
  0.0000000000000000  0.2500000000000001  0.3516052668922047   F   F   F
  0.2500000000000000  0.4999999999999999  0.3516052668922047   F   F   F
  0.0000000000000000  0.4999999999999999  0.4505350889640682   F   F   F
  0.2500000000000000  0.2500000000000001  0.4505350889640682   F   F   F
  0.0000000000000000  0.2500000000000001  0.5494649110359319   T   T   T
  0.2500000000000000  0.4999999999999999  0.5494649110359319   T   T   T
  0.0000000000000000  0.4999999999999999  0.6483947331077953   T   T   T
  0.2500000000000000  0.2500000000000001  0.6483947331077953   T   T   T
  0.4999999999999999  0.7500000000000001  0.3516052668922047   F   F   F
  0.7500000000000000  0.0000000000000001  0.3516052668922047   F   F   F
  0.4999999999999999  0.0000000000000001  0.4505350889640682   F   F   F
  0.7500000000000000  0.7500000000000001  0.4505350889640682   F   F   F
  0.4999999999999999  0.7500000000000001  0.5494649110359319   T   T   T
  0.7500000000000000  0.0000000000000001  0.5494649110359319   T   T   T
  0.4999999999999999  0.0000000000000001  0.6483947331077953   T   T   T
  0.7500000000000000  0.7500000000000001  0.6483947331077953   T   T   T
  0.4999999999999999  0.2500000000000001  0.3516052668922047   F   F   F
  0.7500000000000000  0.4999999999999999  0.3516052668922047   F   F   F
  0.4999999999999999  0.4999999999999999  0.4505350889640682   F   F   F
  0.7500000000000000  0.2500000000000001  0.4505350889640682   F   F   F
  0.4999999999999999  0.2500000000000001  0.5494649110359319   T   T   T
  0.7500000000000000  0.4999999999999999  0.5494649110359319   T   T   T
  0.4999999999999999  0.4999999999999999  0.6483947331077953   T   T   T
  0.7500000000000000  0.2500000000000001  0.6483947331077953   T   T   T
  0.0000000000000000  0.7500000000000001  0.4505350889640682   F   F   F
  0.2500000000000000  0.0000000000000001  0.4505350889640682   F   F   F
  0.0000000000000000  0.0000000000000001  0.3516052668922047   F   F   F
  0.2500000000000000  0.7500000000000001  0.3516052668922047   F   F   F
  0.0000000000000000  0.7500000000000001  0.6483947331077953   T   T   T
  0.2500000000000000  0.0000000000000001  0.6483947331077953   T   T   T
  0.0000000000000000  0.0000000000000001  0.5494649110359319   T   T   T
  0.2500000000000000  0.7500000000000001  0.5494649110359319   T   T   T
  0.0000000000000000  0.2500000000000001  0.4505350889640682   F   F   F
  0.2500000000000000  0.4999999999999999  0.4505350889640682   F   F   F
  0.0000000000000000  0.4999999999999999  0.3516052668922047   F   F   F
  0.2500000000000000  0.2500000000000001  0.3516052668922047   F   F   F
  0.0000000000000000  0.2500000000000001  0.6483947331077953   T   T   T
  0.2500000000000000  0.4999999999999999  0.6483947331077953   T   T   T
  0.0000000000000000  0.4999999999999999  0.5494649110359319   T   T   T
  0.2500000000000000  0.2500000000000001  0.5494649110359319   T   T   T
  0.4999999999999999  0.7500000000000001  0.4505350889640682   F   F   F
  0.7500000000000000  0.0000000000000001  0.4505350889640682   F   F   F
  0.4999999999999999  0.0000000000000001  0.3516052668922047   F   F   F
  0.7500000000000000  0.7500000000000001  0.3516052668922047   F   F   F
  0.4999999999999999  0.7500000000000001  0.6483947331077953   T   T   T
  0.7500000000000000  0.0000000000000001  0.6483947331077953   T   T   T
  0.4999999999999999  0.0000000000000001  0.5494649110359319   T   T   T
  0.7500000000000000  0.7500000000000001  0.5494649110359319   T   T   T
  0.4999999999999999  0.2500000000000001  0.4505350889640682   F   F   F
  0.7500000000000000  0.4999999999999999  0.4505350889640682   F   F   F
  0.4999999999999999  0.4999999999999999  0.3516052668922047   F   F   F
  0.7500000000000000  0.2500000000000001  0.3516052668922047   F   F   F
  0.4999999999999999  0.2500000000000001  0.6483947331077953   T   T   T
  0.7500000000000000  0.4999999999999999  0.6483947331077953   T   T   T
  0.4999999999999999  0.4999999999999999  0.5494649110359319   T   T   T
  0.7500000000000000  0.2500000000000001  0.5494649110359319   T   T   T
