 C  O                                   
   1.00000000000000     
    12.0000000000000000    0.0000000000000000    0.0000000000000000
     0.0000000000000000   12.0000000000000000    0.0000000000000000
     0.0000000000000000    0.0000000000000000   12.0000000000000000
   C    O 
     1     1
Direct
  0.5000000000000000  0.5000000000000000  0.4524570315280840
  0.5000000000000000  0.5000000000000000  0.5475429684719160
 
  0.00000000E+00  0.00000000E+00  0.00000000E+00
  0.00000000E+00  0.00000000E+00  0.00000000E+00
