 C  O Mg  O                             
   1.0000000000000000     
     8.4048619949579724    0.0000000000000000    0.0000000000000000
     0.0000000000000000    8.4048619949579724    0.0000000000000000
     0.0000000000000000    0.0000000000000000   21.3036464962184837
   C    O    Mg   O 
     1     1    32    32
Selective dynamics
Direct
  0.5000000000000000  0.5000000000000000  0.7677277025986157   T   T   T
  0.5000000000000000  0.5000000000000000  0.8207682770774527   T   T   T
  0.2500000000000000  0.0000000000000000  0.3520524057386751   F   F   F
  0.5000000000000000  0.2500000000000000  0.3520524057386751   F   F   F
  0.2500000000000000  0.2500000000000000  0.4506841352462274   F   F   F
  0.5000000000000000  0.0000000000000000  0.4506841352462274   F   F   F
  0.2501088884779247  0.0000000000000000  0.5497393827413706   T   T   T
  0.5000000000000000  0.2505194963368836  0.5500139766008851   T   T   T
  0.2497441486269547  0.2497441486269547  0.6474471819492255   T   T   T
  0.5000000000000000  0.0000000000000000  0.6475789529069296   T   T   T
  0.2500000000000000  0.5000000000000000  0.3520524057386751   F   F   F
  0.5000000000000000  0.7500000000000000  0.3520524057386751   F   F   F
  0.2500000000000000  0.7500000000000000  0.4506841352462274   F   F   F
  0.5000000000000000  0.5000000000000000  0.4506841352462274   F   F   F
  0.2505194963368836  0.5000000000000000  0.5500139766008851   T   T   T
  0.5000000000000000  0.7494805036631168  0.5500139766008851   T   T   T
  0.2497441486269547  0.7502558513730455  0.6474471819492255   T   T   T
  0.5000000000000000  0.5000000000000000  0.6501917084532631   T   T   T
  0.7500000000000000  0.0000000000000000  0.3520524057386751   F   F   F
  0.0000000000000000  0.2500000000000000  0.3520524057386751   F   F   F
  0.7500000000000000  0.2500000000000000  0.4506841352462274   F   F   F
  0.0000000000000000  0.0000000000000000  0.4506841352462274   F   F   F
  0.7498911115220754  0.0000000000000000  0.5497393827413706   T   T   T
  0.0000000000000000  0.2501088884779247  0.5497393827413706   T   T   T
  0.7502558513730455  0.2497441486269547  0.6474471819492255   T   T   T
  0.0000000000000000  0.0000000000000000  0.6476787138118180   T   T   T
  0.7500000000000000  0.5000000000000000  0.3520524057386751   F   F   F
  0.0000000000000000  0.7500000000000000  0.3520524057386751   F   F   F
  0.7500000000000000  0.7500000000000000  0.4506841352462274   F   F   F
  0.0000000000000000  0.5000000000000000  0.4506841352462274   F   F   F
  0.7494805036631168  0.5000000000000000  0.5500139766008851   T   T   T
  0.0000000000000000  0.7498911115220754  0.5497393827413706   T   T   T
  0.7502558513730455  0.7502558513730455  0.6474471819492255   T   T   T
  0.0000000000000000  0.5000000000000000  0.6475789529069296   T   T   T
  0.2500000000000000  0.0000000000000000  0.4506841352462274   F   F   F
  0.5000000000000000  0.2500000000000000  0.4506841352462274   F   F   F
  0.2500000000000000  0.2500000000000000  0.3520524057386751   F   F   F
  0.5000000000000000  0.0000000000000000  0.3520524057386751   F   F   F
  0.2497417217078944  0.0000000000000000  0.6498059245033833   T   T   T
  0.5000000000000000  0.2488820428193806  0.6499159245990770   T   T   T
  0.2499605045410180  0.2499605045410180  0.5495511507154834   T   T   T
  0.5000000000000000  0.0000000000000000  0.5494986727623308   T   T   T
  0.2500000000000000  0.5000000000000000  0.4506841352462274   F   F   F
  0.5000000000000000  0.7500000000000000  0.4506841352462274   F   F   F
  0.2500000000000000  0.7500000000000000  0.3520524057386751   F   F   F
  0.5000000000000000  0.5000000000000000  0.3520524057386751   F   F   F
  0.2488820428193806  0.5000000000000000  0.6499159245990770   T   T   T
  0.5000000000000000  0.7511179571806189  0.6499159245990770   T   T   T
  0.2499605045410180  0.7500394954589821  0.5495511507154834   T   T   T
  0.5000000000000000  0.5000000000000000  0.5500072213236207   T   T   T
  0.7500000000000000  0.0000000000000000  0.4506841352462274   F   F   F
  0.0000000000000000  0.2500000000000000  0.4506841352462274   F   F   F
  0.7500000000000000  0.2500000000000000  0.3520524057386751   F   F   F
  0.0000000000000000  0.0000000000000000  0.3520524057386751   F   F   F
  0.7502582782921058  0.0000000000000000  0.6498059245033833   T   T   T
  0.0000000000000000  0.2497417217078944  0.6498059245033833   T   T   T
  0.7500394954589821  0.2499605045410180  0.5495511507154834   T   T   T
  0.0000000000000000  0.0000000000000000  0.5495210686167878   T   T   T
  0.7500000000000000  0.5000000000000000  0.4506841352462274   F   F   F
  0.0000000000000000  0.7500000000000000  0.4506841352462274   F   F   F
  0.7500000000000000  0.7500000000000000  0.3520524057386751   F   F   F
  0.0000000000000000  0.5000000000000000  0.3520524057386751   F   F   F
  0.7511179571806189  0.5000000000000000  0.6499159245990770   T   T   T
  0.0000000000000000  0.7502582782921058  0.6498059245033833   T   T   T
  0.7500394954589821  0.7500394954589821  0.5495511507154834   T   T   T
  0.0000000000000000  0.5000000000000000  0.5494986727623308   T   T   T

  0.00000000E+00  0.00000000E+00  0.00000000E+00
  0.00000000E+00  0.00000000E+00  0.00000000E+00
  0.00000000E+00  0.00000000E+00  0.00000000E+00
  0.00000000E+00  0.00000000E+00  0.00000000E+00
  0.00000000E+00  0.00000000E+00  0.00000000E+00
  0.00000000E+00  0.00000000E+00  0.00000000E+00
  0.00000000E+00  0.00000000E+00  0.00000000E+00
  0.00000000E+00  0.00000000E+00  0.00000000E+00
  0.00000000E+00  0.00000000E+00  0.00000000E+00
  0.00000000E+00  0.00000000E+00  0.00000000E+00
  0.00000000E+00  0.00000000E+00  0.00000000E+00
  0.00000000E+00  0.00000000E+00  0.00000000E+00
  0.00000000E+00  0.00000000E+00  0.00000000E+00
  0.00000000E+00  0.00000000E+00  0.00000000E+00
  0.00000000E+00  0.00000000E+00  0.00000000E+00
  0.00000000E+00  0.00000000E+00  0.00000000E+00
  0.00000000E+00  0.00000000E+00  0.00000000E+00
  0.00000000E+00  0.00000000E+00  0.00000000E+00
  0.00000000E+00  0.00000000E+00  0.00000000E+00
  0.00000000E+00  0.00000000E+00  0.00000000E+00
  0.00000000E+00  0.00000000E+00  0.00000000E+00
  0.00000000E+00  0.00000000E+00  0.00000000E+00
  0.00000000E+00  0.00000000E+00  0.00000000E+00
  0.00000000E+00  0.00000000E+00  0.00000000E+00
  0.00000000E+00  0.00000000E+00  0.00000000E+00
  0.00000000E+00  0.00000000E+00  0.00000000E+00
  0.00000000E+00  0.00000000E+00  0.00000000E+00
  0.00000000E+00  0.00000000E+00  0.00000000E+00
  0.00000000E+00  0.00000000E+00  0.00000000E+00
  0.00000000E+00  0.00000000E+00  0.00000000E+00
  0.00000000E+00  0.00000000E+00  0.00000000E+00
  0.00000000E+00  0.00000000E+00  0.00000000E+00
  0.00000000E+00  0.00000000E+00  0.00000000E+00
  0.00000000E+00  0.00000000E+00  0.00000000E+00
  0.00000000E+00  0.00000000E+00  0.00000000E+00
  0.00000000E+00  0.00000000E+00  0.00000000E+00
  0.00000000E+00  0.00000000E+00  0.00000000E+00
  0.00000000E+00  0.00000000E+00  0.00000000E+00
  0.00000000E+00  0.00000000E+00  0.00000000E+00
  0.00000000E+00  0.00000000E+00  0.00000000E+00
  0.00000000E+00  0.00000000E+00  0.00000000E+00
  0.00000000E+00  0.00000000E+00  0.00000000E+00
  0.00000000E+00  0.00000000E+00  0.00000000E+00
  0.00000000E+00  0.00000000E+00  0.00000000E+00
  0.00000000E+00  0.00000000E+00  0.00000000E+00
  0.00000000E+00  0.00000000E+00  0.00000000E+00
  0.00000000E+00  0.00000000E+00  0.00000000E+00
  0.00000000E+00  0.00000000E+00  0.00000000E+00
  0.00000000E+00  0.00000000E+00  0.00000000E+00
  0.00000000E+00  0.00000000E+00  0.00000000E+00
  0.00000000E+00  0.00000000E+00  0.00000000E+00
  0.00000000E+00  0.00000000E+00  0.00000000E+00
  0.00000000E+00  0.00000000E+00  0.00000000E+00
  0.00000000E+00  0.00000000E+00  0.00000000E+00
  0.00000000E+00  0.00000000E+00  0.00000000E+00
  0.00000000E+00  0.00000000E+00  0.00000000E+00
  0.00000000E+00  0.00000000E+00  0.00000000E+00
  0.00000000E+00  0.00000000E+00  0.00000000E+00
  0.00000000E+00  0.00000000E+00  0.00000000E+00
  0.00000000E+00  0.00000000E+00  0.00000000E+00
  0.00000000E+00  0.00000000E+00  0.00000000E+00
  0.00000000E+00  0.00000000E+00  0.00000000E+00
  0.00000000E+00  0.00000000E+00  0.00000000E+00
  0.00000000E+00  0.00000000E+00  0.00000000E+00
  0.00000000E+00  0.00000000E+00  0.00000000E+00
  0.00000000E+00  0.00000000E+00  0.00000000E+00
