Mg  O                                   
   1.0000000000000000     
     8.4409846541513982    0.0000000000000000    0.0000000000000000
     0.0000000000000000    8.4409846541513982    0.0000000000000000
     0.0000000000000000    0.0000000000000000   25.5512308176892482
   Mg   O 
    48    48
Selective dynamics
Direct
  0.0000000000000000  0.7500000000000000  0.2935279342710828   F   F   F
  0.2500000000000000  0.0000000000000000  0.2935279342710828   F   F   F
  0.0000000000000000  0.0000000000000000  0.3761167605626525   F   F   F
  0.2500000000000000  0.7500000000000000  0.3761167605626525   F   F   F
 -0.0000000000000000  0.7500000000000000  0.4590787231476264   T   T   T
  0.2500000000000000 -0.0000000000000000  0.4590787231476264   T   T   T
 -0.0000000000000000  0.0000000000000000  0.5419406073058322   T   T   T
  0.2500000000000000  0.7500000000000000  0.5419406073058322   T   T   T
  0.0000000000000000  0.7500000000000000  0.6250376622460502   T   T   T
  0.2500000000000000 -0.0000000000000000  0.6250376622460502   T   T   T
 -0.0000000000000000  0.0000000000000000  0.7073539560777415   T   T   T
  0.2500000000000000  0.7500000000000000  0.7073539560777415   T   T   T
  0.0000000000000000  0.2500000000000000  0.2935279342710828   F   F   F
  0.2500000000000000  0.5000000000000000  0.2935279342710828   F   F   F
  0.0000000000000000  0.5000000000000000  0.3761167605626525   F   F   F
  0.2500000000000000  0.2500000000000000  0.3761167605626525   F   F   F
  0.0000000000000000  0.2500000000000000  0.4590787231476264   T   T   T
  0.2500000000000000  0.5000000000000000  0.4590787231476264   T   T   T
  0.0000000000000000  0.5000000000000000  0.5419406073058322   T   T   T
  0.2500000000000000  0.2500000000000000  0.5419406073058322   T   T   T
  0.0000000000000000  0.2500000000000000  0.6250376622460502   T   T   T
  0.2500000000000000  0.5000000000000000  0.6250376622460502   T   T   T
 -0.0000000000000000  0.5000000000000000  0.7073539560777415   T   T   T
  0.2500000000000000  0.2500000000000000  0.7073539560777415   T   T   T
  0.5000000000000000  0.7500000000000000  0.2935279342710828   F   F   F
  0.7500000000000000  0.0000000000000000  0.2935279342710828   F   F   F
  0.5000000000000000  0.0000000000000000  0.3761167605626525   F   F   F
  0.7500000000000000  0.7500000000000000  0.3761167605626525   F   F   F
  0.5000000000000000  0.7500000000000000  0.4590787231476264   T   T   T
  0.7500000000000000  0.0000000000000000  0.4590787231476264   T   T   T
  0.5000000000000000 -0.0000000000000000  0.5419406073058322   T   T   T
  0.7500000000000000  0.7500000000000000  0.5419406073058322   T   T   T
  0.5000000000000000  0.7500000000000000  0.6250376622460502   T   T   T
  0.7500000000000000 -0.0000000000000000  0.6250376622460502   T   T   T
  0.5000000000000000  0.0000000000000000  0.7073539560777415   T   T   T
  0.7500000000000000  0.7500000000000000  0.7073539560777415   T   T   T
  0.5000000000000000  0.2500000000000000  0.2935279342710828   F   F   F
  0.7500000000000000  0.5000000000000000  0.2935279342710828   F   F   F
  0.5000000000000000  0.5000000000000000  0.3761167605626525   F   F   F
  0.7500000000000000  0.2500000000000000  0.3761167605626525   F   F   F
  0.5000000000000000  0.2500000000000000  0.4590787231476264   T   T   T
  0.7500000000000000  0.5000000000000000  0.4590787231476264   T   T   T
  0.5000000000000000  0.5000000000000000  0.5419406073058322   T   T   T
  0.7500000000000000  0.2500000000000000  0.5419406073058322   T   T   T
  0.5000000000000000  0.2500000000000000  0.6250376622460502   T   T   T
  0.7500000000000000  0.5000000000000000  0.6250376622460502   T   T   T
  0.5000000000000000  0.5000000000000000  0.7073539560777415   T   T   T
  0.7500000000000000  0.2500000000000000  0.7073539560777415   T   T   T
  0.0000000000000000  0.7500000000000000  0.3761167605626525   F   F   F
  0.2500000000000000  0.0000000000000000  0.3761167605626525   F   F   F
  0.0000000000000000  0.0000000000000000  0.2935279342710828   F   F   F
  0.2500000000000000  0.7500000000000000  0.2935279342710828   F   F   F
  0.0000000000000000  0.7500000000000000  0.5419985716336411   T   T   T
  0.2500000000000000 -0.0000000000000000  0.5419985716336411   T   T   T
 -0.0000000000000000  0.0000000000000000  0.4590824741873718   T   T   T
  0.2500000000000000  0.7500000000000000  0.4590824741873718   T   T   T
 -0.0000000000000000  0.7500000000000000  0.7091530420320685   T   T   T
  0.2500000000000000  0.0000000000000000  0.7091530420320685   T   T   T
  0.0000000000000000  0.0000000000000000  0.6248118137901125   T   T   T
  0.2500000000000000  0.7500000000000000  0.6248118137901125   T   T   T
  0.0000000000000000  0.2500000000000000  0.3761167605626525   F   F   F
  0.2500000000000000  0.5000000000000000  0.3761167605626525   F   F   F
  0.0000000000000000  0.5000000000000000  0.2935279342710828   F   F   F
  0.2500000000000000  0.2500000000000000  0.2935279342710828   F   F   F
  0.0000000000000000  0.2500000000000000  0.5419985716336411   T   T   T
  0.2500000000000000  0.5000000000000000  0.5419985716336411   T   T   T
  0.0000000000000000  0.5000000000000000  0.4590824741873718   T   T   T
  0.2500000000000000  0.2500000000000000  0.4590824741873718   T   T   T
  0.0000000000000000  0.2500000000000000  0.7091530420320685   T   T   T
  0.2500000000000000  0.5000000000000000  0.7091530420320685   T   T   T
 -0.0000000000000000  0.5000000000000000  0.6248118137901125   T   T   T
  0.2500000000000000  0.2500000000000000  0.6248118137901125   T   T   T
  0.5000000000000000  0.7500000000000000  0.3761167605626525   F   F   F
  0.7500000000000000  0.0000000000000000  0.3761167605626525   F   F   F
  0.5000000000000000  0.0000000000000000  0.2935279342710828   F   F   F
  0.7500000000000000  0.7500000000000000  0.2935279342710828   F   F   F
  0.5000000000000000  0.7500000000000000  0.5419985716336411   T   T   T
  0.7500000000000000  0.0000000000000000  0.5419985716336411   T   T   T
  0.5000000000000000 -0.0000000000000000  0.4590824741873718   T   T   T
  0.7500000000000000  0.7500000000000000  0.4590824741873718   T   T   T
  0.5000000000000000  0.7500000000000000  0.7091530420320685   T   T   T
  0.7500000000000000  0.0000000000000000  0.7091530420320685   T   T   T
  0.5000000000000000 -0.0000000000000000  0.6248118137901125   T   T   T
  0.7500000000000000  0.7500000000000000  0.6248118137901125   T   T   T
  0.5000000000000000  0.2500000000000000  0.3761167605626525   F   F   F
  0.7500000000000000  0.5000000000000000  0.3761167605626525   F   F   F
  0.5000000000000000  0.5000000000000000  0.2935279342710828   F   F   F
  0.7500000000000000  0.2500000000000000  0.2935279342710828   F   F   F
  0.5000000000000000  0.2500000000000000  0.5419985716336411   T   T   T
  0.7500000000000000  0.5000000000000000  0.5419985716336411   T   T   T
  0.5000000000000000  0.5000000000000000  0.4590824741873718   T   T   T
  0.7500000000000000  0.2500000000000000  0.4590824741873718   T   T   T
  0.5000000000000000  0.2500000000000000  0.7091530420320685   T   T   T
  0.7500000000000000  0.5000000000000000  0.7091530420320685   T   T   T
  0.5000000000000000  0.5000000000000000  0.6248118137901125   T   T   T
  0.7500000000000000  0.2500000000000000  0.6248118137901125   T   T   T

  0.00000000E+00  0.00000000E+00  0.00000000E+00
  0.00000000E+00  0.00000000E+00  0.00000000E+00
  0.00000000E+00  0.00000000E+00  0.00000000E+00
  0.00000000E+00  0.00000000E+00  0.00000000E+00
  0.00000000E+00  0.00000000E+00  0.00000000E+00
  0.00000000E+00  0.00000000E+00  0.00000000E+00
  0.00000000E+00  0.00000000E+00  0.00000000E+00
  0.00000000E+00  0.00000000E+00  0.00000000E+00
  0.00000000E+00  0.00000000E+00  0.00000000E+00
  0.00000000E+00  0.00000000E+00  0.00000000E+00
  0.00000000E+00  0.00000000E+00  0.00000000E+00
  0.00000000E+00  0.00000000E+00  0.00000000E+00
  0.00000000E+00  0.00000000E+00  0.00000000E+00
  0.00000000E+00  0.00000000E+00  0.00000000E+00
  0.00000000E+00  0.00000000E+00  0.00000000E+00
  0.00000000E+00  0.00000000E+00  0.00000000E+00
  0.00000000E+00  0.00000000E+00  0.00000000E+00
  0.00000000E+00  0.00000000E+00  0.00000000E+00
  0.00000000E+00  0.00000000E+00  0.00000000E+00
  0.00000000E+00  0.00000000E+00  0.00000000E+00
  0.00000000E+00  0.00000000E+00  0.00000000E+00
  0.00000000E+00  0.00000000E+00  0.00000000E+00
  0.00000000E+00  0.00000000E+00  0.00000000E+00
  0.00000000E+00  0.00000000E+00  0.00000000E+00
  0.00000000E+00  0.00000000E+00  0.00000000E+00
  0.00000000E+00  0.00000000E+00  0.00000000E+00
  0.00000000E+00  0.00000000E+00  0.00000000E+00
  0.00000000E+00  0.00000000E+00  0.00000000E+00
  0.00000000E+00  0.00000000E+00  0.00000000E+00
  0.00000000E+00  0.00000000E+00  0.00000000E+00
  0.00000000E+00  0.00000000E+00  0.00000000E+00
  0.00000000E+00  0.00000000E+00  0.00000000E+00
  0.00000000E+00  0.00000000E+00  0.00000000E+00
  0.00000000E+00  0.00000000E+00  0.00000000E+00
  0.00000000E+00  0.00000000E+00  0.00000000E+00
  0.00000000E+00  0.00000000E+00  0.00000000E+00
  0.00000000E+00  0.00000000E+00  0.00000000E+00
  0.00000000E+00  0.00000000E+00  0.00000000E+00
  0.00000000E+00  0.00000000E+00  0.00000000E+00
  0.00000000E+00  0.00000000E+00  0.00000000E+00
  0.00000000E+00  0.00000000E+00  0.00000000E+00
  0.00000000E+00  0.00000000E+00  0.00000000E+00
  0.00000000E+00  0.00000000E+00  0.00000000E+00
  0.00000000E+00  0.00000000E+00  0.00000000E+00
  0.00000000E+00  0.00000000E+00  0.00000000E+00
  0.00000000E+00  0.00000000E+00  0.00000000E+00
  0.00000000E+00  0.00000000E+00  0.00000000E+00
  0.00000000E+00  0.00000000E+00  0.00000000E+00
  0.00000000E+00  0.00000000E+00  0.00000000E+00
  0.00000000E+00  0.00000000E+00  0.00000000E+00
  0.00000000E+00  0.00000000E+00  0.00000000E+00
  0.00000000E+00  0.00000000E+00  0.00000000E+00
  0.00000000E+00  0.00000000E+00  0.00000000E+00
  0.00000000E+00  0.00000000E+00  0.00000000E+00
  0.00000000E+00  0.00000000E+00  0.00000000E+00
  0.00000000E+00  0.00000000E+00  0.00000000E+00
  0.00000000E+00  0.00000000E+00  0.00000000E+00
  0.00000000E+00  0.00000000E+00  0.00000000E+00
  0.00000000E+00  0.00000000E+00  0.00000000E+00
  0.00000000E+00  0.00000000E+00  0.00000000E+00
  0.00000000E+00  0.00000000E+00  0.00000000E+00
  0.00000000E+00  0.00000000E+00  0.00000000E+00
  0.00000000E+00  0.00000000E+00  0.00000000E+00
  0.00000000E+00  0.00000000E+00  0.00000000E+00
  0.00000000E+00  0.00000000E+00  0.00000000E+00
  0.00000000E+00  0.00000000E+00  0.00000000E+00
  0.00000000E+00  0.00000000E+00  0.00000000E+00
  0.00000000E+00  0.00000000E+00  0.00000000E+00
  0.00000000E+00  0.00000000E+00  0.00000000E+00
  0.00000000E+00  0.00000000E+00  0.00000000E+00
  0.00000000E+00  0.00000000E+00  0.00000000E+00
  0.00000000E+00  0.00000000E+00  0.00000000E+00
  0.00000000E+00  0.00000000E+00  0.00000000E+00
  0.00000000E+00  0.00000000E+00  0.00000000E+00
  0.00000000E+00  0.00000000E+00  0.00000000E+00
  0.00000000E+00  0.00000000E+00  0.00000000E+00
  0.00000000E+00  0.00000000E+00  0.00000000E+00
  0.00000000E+00  0.00000000E+00  0.00000000E+00
  0.00000000E+00  0.00000000E+00  0.00000000E+00
  0.00000000E+00  0.00000000E+00  0.00000000E+00
  0.00000000E+00  0.00000000E+00  0.00000000E+00
  0.00000000E+00  0.00000000E+00  0.00000000E+00
  0.00000000E+00  0.00000000E+00  0.00000000E+00
  0.00000000E+00  0.00000000E+00  0.00000000E+00
  0.00000000E+00  0.00000000E+00  0.00000000E+00
  0.00000000E+00  0.00000000E+00  0.00000000E+00
  0.00000000E+00  0.00000000E+00  0.00000000E+00
  0.00000000E+00  0.00000000E+00  0.00000000E+00
  0.00000000E+00  0.00000000E+00  0.00000000E+00
  0.00000000E+00  0.00000000E+00  0.00000000E+00
  0.00000000E+00  0.00000000E+00  0.00000000E+00
  0.00000000E+00  0.00000000E+00  0.00000000E+00
  0.00000000E+00  0.00000000E+00  0.00000000E+00
  0.00000000E+00  0.00000000E+00  0.00000000E+00
  0.00000000E+00  0.00000000E+00  0.00000000E+00
  0.00000000E+00  0.00000000E+00  0.00000000E+00
