 C  O Mg  O                             
   1.0000000000000000     
     8.4671426306338464    0.0000000000000000    0.0000000000000000
     0.0000000000000000    8.4671426306338464    0.0000000000000000
     0.0000000000000000    0.0000000000000000   21.3503569729753835
   C    O    Mg   O 
     1     1    32    32
Selective dynamics
Direct
  0.5000000000000000  0.5000000000000000  0.7640797711383200   T   T   T
  0.5000000000000000  0.5000000000000000  0.8171673023580770   T   T   T
  0.2500000000000000  0.0000000000000000  0.3512821827519446   F   F   F
  0.5000000000000000  0.2500000000000000  0.3512821827519446   F   F   F
  0.2500000000000000  0.2500000000000000  0.4504273942506458   F   F   F
  0.5000000000000000  0.0000000000000000  0.4504273942506458   F   F   F
  0.2501306753463695  0.0000000000000000  0.5500510249057342   F   F   F
  0.5000000000000000  0.2505493737078552  0.5503373608491344   F   F   F
  0.2496647253730515  0.2496647253730515  0.6482330618719843   F   F   F
  0.5000000000000000  0.0000000000000000  0.6483273150504587   F   F   F
  0.2500000000000000  0.5000000000000000  0.3512821827519446   F   F   F
  0.5000000000000000  0.7500000000000000  0.3512821827519446   F   F   F
  0.2500000000000000  0.7500000000000000  0.4504273942506458   F   F   F
  0.5000000000000000  0.5000000000000000  0.4504273942506458   F   F   F
  0.2505493737078552  0.5000000000000000  0.5503373608491344   F   F   F
  0.5000000000000000  0.7494506262921448  0.5503373608491344   F   F   F
  0.2496647253730515  0.7503352746269485  0.6482330618719843   F   F   F
  0.5000000000000000  0.5000000000000000  0.6510258837469109   F   F   F
  0.7500000000000000  0.0000000000000000  0.3512821827519446   F   F   F
  0.0000000000000000  0.2500000000000000  0.3512821827519446   F   F   F
  0.7500000000000000  0.2500000000000000  0.4504273942506458   F   F   F
  0.0000000000000000  0.0000000000000000  0.4504273942506458   F   F   F
  0.7498693246536305  0.0000000000000000  0.5500510249057342   F   F   F
  0.0000000000000000  0.2501306753463695  0.5500510249057342   F   F   F
  0.7503352746269485  0.2496647253730515  0.6482330618719843   F   F   F
  0.0000000000000000  0.0000000000000000  0.6483162398926652   F   F   F
  0.7500000000000000  0.5000000000000000  0.3512821827519446   F   F   F
  0.0000000000000000  0.7500000000000000  0.3512821827519446   F   F   F
  0.7500000000000000  0.7500000000000000  0.4504273942506458   F   F   F
  0.0000000000000000  0.5000000000000000  0.4504273942506458   F   F   F
  0.7494506262921448  0.5000000000000000  0.5503373608491344   F   F   F
  0.0000000000000000  0.7498693246536305  0.5500510249057342   F   F   F
  0.7503352746269485  0.7503352746269485  0.6482330618719843   F   F   F
  0.0000000000000000  0.5000000000000000  0.6483273150504587   F   F   F
  0.2500000000000000  0.0000000000000000  0.4504273942506458   F   F   F
  0.5000000000000000  0.2500000000000000  0.4504273942506458   F   F   F
  0.2500000000000000  0.2500000000000000  0.3512821827519446   F   F   F
  0.5000000000000000  0.0000000000000000  0.3512821827519446   F   F   F
  0.2496759693539943  0.0000000000000000  0.6506937572964588   F   F   F
  0.5000000000000000  0.2486163738072023  0.6508748729821718   F   F   F
  0.2499956259731917  0.2499956259731917  0.5498150196317226   F   F   F
  0.5000000000000000  0.0000000000000000  0.5497436581489197   F   F   F
  0.2500000000000000  0.5000000000000000  0.4504273942506458   F   F   F
  0.5000000000000000  0.7500000000000000  0.4504273942506458   F   F   F
  0.2500000000000000  0.7500000000000000  0.3512821827519446   F   F   F
  0.5000000000000000  0.5000000000000000  0.3512821827519446   F   F   F
  0.2486163738072023  0.5000000000000000  0.6508748729821718   F   F   F
  0.5000000000000000  0.7513836261927977  0.6508748729821718   F   F   F
  0.2499956259731917  0.7500043740268083  0.5498150196317226   F   F   F
  0.5000000000000000  0.5000000000000000  0.5503614077606898   F   F   F
  0.7500000000000000  0.0000000000000000  0.4504273942506458   F   F   F
  0.0000000000000000  0.2500000000000000  0.4504273942506458   F   F   F
  0.7500000000000000  0.2500000000000000  0.3512821827519446   F   F   F
  0.0000000000000000  0.0000000000000000  0.3512821827519446   F   F   F
  0.7503240306460057  0.0000000000000000  0.6506937572964588   F   F   F
  0.0000000000000000  0.2496759693539943  0.6506937572964588   F   F   F
  0.7500043740268083  0.2499956259731917  0.5498150196317226   F   F   F
  0.0000000000000000  0.0000000000000000  0.5497108767813472   F   F   F
  0.7500000000000000  0.5000000000000000  0.4504273942506458   F   F   F
  0.0000000000000000  0.7500000000000000  0.4504273942506458   F   F   F
  0.7500000000000000  0.7500000000000000  0.3512821827519446   F   F   F
  0.0000000000000000  0.5000000000000000  0.3512821827519446   F   F   F
  0.7513836261927977  0.5000000000000000  0.6508748729821718   F   F   F
  0.0000000000000000  0.7503240306460057  0.6506937572964588   F   F   F
  0.7500043740268083  0.7500043740268083  0.5498150196317226   F   F   F
  0.0000000000000000  0.5000000000000000  0.5497436581489197   F   F   F

  0.00000000E+00  0.00000000E+00  0.00000000E+00
  0.00000000E+00  0.00000000E+00  0.00000000E+00
  0.00000000E+00  0.00000000E+00  0.00000000E+00
  0.00000000E+00  0.00000000E+00  0.00000000E+00
  0.00000000E+00  0.00000000E+00  0.00000000E+00
  0.00000000E+00  0.00000000E+00  0.00000000E+00
  0.00000000E+00  0.00000000E+00  0.00000000E+00
  0.00000000E+00  0.00000000E+00  0.00000000E+00
  0.00000000E+00  0.00000000E+00  0.00000000E+00
  0.00000000E+00  0.00000000E+00  0.00000000E+00
  0.00000000E+00  0.00000000E+00  0.00000000E+00
  0.00000000E+00  0.00000000E+00  0.00000000E+00
  0.00000000E+00  0.00000000E+00  0.00000000E+00
  0.00000000E+00  0.00000000E+00  0.00000000E+00
  0.00000000E+00  0.00000000E+00  0.00000000E+00
  0.00000000E+00  0.00000000E+00  0.00000000E+00
  0.00000000E+00  0.00000000E+00  0.00000000E+00
  0.00000000E+00  0.00000000E+00  0.00000000E+00
  0.00000000E+00  0.00000000E+00  0.00000000E+00
  0.00000000E+00  0.00000000E+00  0.00000000E+00
  0.00000000E+00  0.00000000E+00  0.00000000E+00
  0.00000000E+00  0.00000000E+00  0.00000000E+00
  0.00000000E+00  0.00000000E+00  0.00000000E+00
  0.00000000E+00  0.00000000E+00  0.00000000E+00
  0.00000000E+00  0.00000000E+00  0.00000000E+00
  0.00000000E+00  0.00000000E+00  0.00000000E+00
  0.00000000E+00  0.00000000E+00  0.00000000E+00
  0.00000000E+00  0.00000000E+00  0.00000000E+00
  0.00000000E+00  0.00000000E+00  0.00000000E+00
  0.00000000E+00  0.00000000E+00  0.00000000E+00
  0.00000000E+00  0.00000000E+00  0.00000000E+00
  0.00000000E+00  0.00000000E+00  0.00000000E+00
  0.00000000E+00  0.00000000E+00  0.00000000E+00
  0.00000000E+00  0.00000000E+00  0.00000000E+00
  0.00000000E+00  0.00000000E+00  0.00000000E+00
  0.00000000E+00  0.00000000E+00  0.00000000E+00
  0.00000000E+00  0.00000000E+00  0.00000000E+00
  0.00000000E+00  0.00000000E+00  0.00000000E+00
  0.00000000E+00  0.00000000E+00  0.00000000E+00
  0.00000000E+00  0.00000000E+00  0.00000000E+00
  0.00000000E+00  0.00000000E+00  0.00000000E+00
  0.00000000E+00  0.00000000E+00  0.00000000E+00
  0.00000000E+00  0.00000000E+00  0.00000000E+00
  0.00000000E+00  0.00000000E+00  0.00000000E+00
  0.00000000E+00  0.00000000E+00  0.00000000E+00
  0.00000000E+00  0.00000000E+00  0.00000000E+00
  0.00000000E+00  0.00000000E+00  0.00000000E+00
  0.00000000E+00  0.00000000E+00  0.00000000E+00
  0.00000000E+00  0.00000000E+00  0.00000000E+00
  0.00000000E+00  0.00000000E+00  0.00000000E+00
  0.00000000E+00  0.00000000E+00  0.00000000E+00
  0.00000000E+00  0.00000000E+00  0.00000000E+00
  0.00000000E+00  0.00000000E+00  0.00000000E+00
  0.00000000E+00  0.00000000E+00  0.00000000E+00
  0.00000000E+00  0.00000000E+00  0.00000000E+00
  0.00000000E+00  0.00000000E+00  0.00000000E+00
  0.00000000E+00  0.00000000E+00  0.00000000E+00
  0.00000000E+00  0.00000000E+00  0.00000000E+00
  0.00000000E+00  0.00000000E+00  0.00000000E+00
  0.00000000E+00  0.00000000E+00  0.00000000E+00
  0.00000000E+00  0.00000000E+00  0.00000000E+00
  0.00000000E+00  0.00000000E+00  0.00000000E+00
  0.00000000E+00  0.00000000E+00  0.00000000E+00
  0.00000000E+00  0.00000000E+00  0.00000000E+00
  0.00000000E+00  0.00000000E+00  0.00000000E+00
  0.00000000E+00  0.00000000E+00  0.00000000E+00
