 C  O Mg  O 
 1.0000000000000000
     8.4409846541513982    0.0000000000000000    0.0000000000000000
     0.0000000000000000    8.4409846541513982    0.0000000000000000
     0.0000000000000000    0.0000000000000000   21.3307384906135482
   C   O  Mg   O
   1   1  32  32
Direct
  0.5000000000000000  0.5000000000000000  0.7734444000498363
  0.5000000000000000  0.5000000000000000  0.8272081183179230
  0.0000000000000000  0.7500000000000000  0.3516052668922072
  0.2500000000000000  0.0000000000000000  0.3516052668922072
  0.0000000000000000  0.0000000000000000  0.4505350889640667
  0.2500000000000000  0.7500000000000000  0.4505350889640667
  0.0000000000000000  0.7499392679099361  0.5500832391147221
  0.2500607320900638  0.0000000000000000  0.5500832391147221
  0.0000000000000000  0.0000000000000000  0.6487453091442376
  0.2498583271629312  0.7501416728370690  0.6485695471241470
  0.0000000000000000  0.2500000000000000  0.3516052668922072
  0.2500000000000000  0.5000000000000000  0.3516052668922072
  0.0000000000000000  0.5000000000000000  0.4505350889640667
  0.2500000000000000  0.2500000000000000  0.4505350889640667
  0.0000000000000000  0.2500607320900638  0.5500832391147221
  0.2503783790197028  0.5000000000000000  0.5502195237862202
  0.0000000000000000  0.5000000000000000  0.6486152804400541
  0.2498583271629312  0.2498583271629312  0.6485695471241470
  0.5000000000000000  0.7500000000000000  0.3516052668922072
  0.7500000000000000  0.0000000000000000  0.3516052668922072
  0.5000000000000000  0.0000000000000000  0.4505350889640667
  0.7500000000000000  0.7500000000000000  0.4505350889640667
  0.5000000000000000  0.7496216209802971  0.5502195237862202
  0.7499392679099361  0.0000000000000000  0.5500832391147221
  0.5000000000000000  0.0000000000000000  0.6486152804400541
  0.7501416728370690  0.7501416728370690  0.6485695471241470
  0.5000000000000000  0.2500000000000000  0.3516052668922072
  0.7500000000000000  0.5000000000000000  0.3516052668922072
  0.5000000000000000  0.5000000000000000  0.4505350889640667
  0.7500000000000000  0.2500000000000000  0.4505350889640667
  0.5000000000000000  0.2503783790197028  0.5502195237862202
  0.7496216209802971  0.5000000000000000  0.5502195237862202
  0.5000000000000000  0.5000000000000000  0.6506169601488261
  0.7501416728370690  0.2498583271629312  0.6485695471241470
  0.0000000000000000  0.7500000000000000  0.4505350889640667
  0.2500000000000000  0.0000000000000000  0.4505350889640667
  0.0000000000000000  0.0000000000000000  0.3516052668922072
  0.2500000000000000  0.7500000000000000  0.3516052668922072
  0.0000000000000000  0.7502185328875304  0.6509792551751273
  0.2497814671124697  0.0000000000000000  0.6509792551751273
  0.0000000000000000  0.0000000000000000  0.5498098904919857
  0.2499457704965093  0.7500542295034907  0.5498591131547014
  0.0000000000000000  0.2500000000000000  0.4505350889640667
  0.2500000000000000  0.5000000000000000  0.4505350889640667
  0.0000000000000000  0.5000000000000000  0.3516052668922072
  0.2500000000000000  0.2500000000000000  0.3516052668922072
  0.0000000000000000  0.2497814671124697  0.6509792551751273
  0.2488227096466181  0.5000000000000000  0.6508828716772690
  0.0000000000000000  0.5000000000000000  0.5497626655940212
  0.2499457704965093  0.2499457704965093  0.5498591131547014
  0.5000000000000000  0.7500000000000000  0.4505350889640667
  0.7500000000000000  0.0000000000000000  0.4505350889640667
  0.5000000000000000  0.0000000000000000  0.3516052668922072
  0.7500000000000000  0.7500000000000000  0.3516052668922072
  0.5000000000000000  0.7511772903533822  0.6508828716772690
  0.7502185328875304  0.0000000000000000  0.6509792551751273
  0.5000000000000000  0.0000000000000000  0.5497626655940212
  0.7500542295034907  0.7500542295034907  0.5498591131547014
  0.5000000000000000  0.2500000000000000  0.4505350889640667
  0.7500000000000000  0.5000000000000000  0.4505350889640667
  0.5000000000000000  0.5000000000000000  0.3516052668922072
  0.7500000000000000  0.2500000000000000  0.3516052668922072
  0.5000000000000000  0.2488227096466181  0.6508828716772690
  0.7511772903533822  0.5000000000000000  0.6508828716772690
  0.5000000000000000  0.5000000000000000  0.5502313568597578
  0.7500542295034907  0.2499457704965093  0.5498591131547014
