 C  O                                   
   1.00000000000000     
     8.4409846541513982    0.0000000000000000    0.0000000000000000
     0.0000000000000000    8.4409846541513982    0.0000000000000000
     0.0000000000000000    0.0000000000000000   26.3307384906135482
   C    O 
     1     1
Direct
  0.5000000000000000  0.5000000000000000  0.7113639633499389
  0.5000000000000000  0.5000000000000000  0.7549098509748902
 
  0.00000000E+00  0.00000000E+00  0.00000000E+00
  0.00000000E+00  0.00000000E+00  0.00000000E+00
