 C  O 
 1.0000000000000000
     8.4409846541513982    0.0000000000000000    0.0000000000000000
     0.0000000000000000    8.4409846541513982    0.0000000000000000
     0.0000000000000000    0.0000000000000000   26.3307384906135482
   C   O
   1   1
Direct
  0.4999999999999999  0.4999999999999999  0.7113639633499353
  0.4999999999999999  0.4999999999999999  0.7549098509748914
