 C  O Mg  O                             
   1.00000000000000     
     8.4409846541513982    0.0000000000000000    0.0000000000000000
     0.0000000000000000    8.4409846541513982    0.0000000000000000
     0.0000000000000000    0.0000000000000000   26.3307384906135482
   C    O    Mg   O 
     1     1    32    32
Selective dynamics
Direct
  0.5000000000000000  0.5000000000000000  0.7151402714425371   T   T   T
  0.5000000000000000  0.5000000000000000  0.7586938897005263   T   T   T
  0.0000000000000000  0.7500000000000000  0.3797842587500853   F   F   F
  0.2500000000000000  0.0000000000000000  0.3797842587500853   F   F   F
  0.0000000000000000  0.0000000000000000  0.4599280862500308   F   F   F
  0.2500000000000000  0.7500000000000000  0.4599280862500308   F   F   F
 -0.0000000000000000  0.7499189282414279  0.5405194820978823   T   T   T
  0.2500810717585719 -0.0000000000000000  0.5405194820978823   T   T   T
 -0.0000000000000000 -0.0000000000000000  0.6203959948780221   T   T   T
  0.2498680257094140  0.7501319742905860  0.6202817004647029   T   T   T
  0.0000000000000000  0.2500000000000000  0.3797842587500853   F   F   F
  0.2500000000000000  0.5000000000000000  0.3797842587500853   F   F   F
  0.0000000000000000  0.5000000000000000  0.4599280862500308   F   F   F
  0.2500000000000000  0.2500000000000000  0.4599280862500308   F   F   F
 -0.0000000000000000  0.2500810717585719  0.5405194820978823   T   T   T
  0.2504092515818492  0.5000000000000000  0.5406575459363097   T   T   T
 -0.0000000000000000  0.5000000000000000  0.6203308721955338   T   T   T
  0.2498680257094140  0.2498680257094140  0.6202817004647029   T   T   T
  0.5000000000000000  0.7500000000000000  0.3797842587500853   F   F   F
  0.7500000000000000  0.0000000000000000  0.3797842587500853   F   F   F
  0.5000000000000000  0.0000000000000000  0.4599280862500308   F   F   F
  0.7500000000000000  0.7500000000000000  0.4599280862500308   F   F   F
  0.5000000000000000  0.7495907484181507  0.5406575459363097   T   T   T
  0.7499189282414279 -0.0000000000000000  0.5405194820978823   T   T   T
  0.5000000000000000 -0.0000000000000000  0.6203308721955338   T   T   T
  0.7501319742905860  0.7501319742905860  0.6202817004647029   T   T   T
  0.5000000000000000  0.2500000000000000  0.3797842587500853   F   F   F
  0.7500000000000000  0.5000000000000000  0.3797842587500853   F   F   F
  0.5000000000000000  0.5000000000000000  0.4599280862500308   F   F   F
  0.7500000000000000  0.2500000000000000  0.4599280862500308   F   F   F
  0.5000000000000000  0.2504092515818492  0.5406575459363097   T   T   T
  0.7495907484181507  0.5000000000000000  0.5406575459363097   T   T   T
  0.5000000000000000  0.5000000000000000  0.6220880835015210   T   T   T
  0.7501319742905860  0.2498680257094140  0.6202817004647029   T   T   T
  0.0000000000000000  0.7500000000000000  0.4599280862500308   F   F   F
  0.2500000000000000  0.0000000000000000  0.4599280862500308   F   F   F
  0.0000000000000000  0.0000000000000000  0.3797842587500853   F   F   F
  0.2500000000000000  0.7500000000000000  0.3797842587500853   F   F   F
 -0.0000000000000000  0.7502103725150254  0.6222074632054579   T   T   T
  0.2497896274849750 -0.0000000000000000  0.6222074632054579   T   T   T
 -0.0000000000000000 -0.0000000000000000  0.5402994829648076   T   T   T
  0.2499884442262788  0.7500115557737214  0.5403355458548476   T   T   T
  0.0000000000000000  0.2500000000000000  0.4599280862500308   F   F   F
  0.2500000000000000  0.5000000000000000  0.4599280862500308   F   F   F
  0.0000000000000000  0.5000000000000000  0.3797842587500853   F   F   F
  0.2500000000000000  0.2500000000000000  0.3797842587500853   F   F   F
 -0.0000000000000000  0.2497896274849750  0.6222074632054579   T   T   T
  0.2488032923608479  0.5000000000000000  0.6222125038602672   T   T   T
 -0.0000000000000000  0.5000000000000000  0.5402767628558677   T   T   T
  0.2499884442262788  0.2499884442262788  0.5403355458548476   T   T   T
  0.5000000000000000  0.7500000000000000  0.4599280862500308   F   F   F
  0.7500000000000000  0.0000000000000000  0.4599280862500308   F   F   F
  0.5000000000000000  0.0000000000000000  0.3797842587500853   F   F   F
  0.7500000000000000  0.7500000000000000  0.3797842587500853   F   F   F
  0.5000000000000000  0.7511967076391523  0.6222125038602672   T   T   T
  0.7502103725150254 -0.0000000000000000  0.6222074632054579   T   T   T
  0.5000000000000000 -0.0000000000000000  0.5402767628558677   T   T   T
  0.7500115557737214  0.7500115557737214  0.5403355458548476   T   T   T
  0.5000000000000000  0.2500000000000000  0.4599280862500308   F   F   F
  0.7500000000000000  0.5000000000000000  0.4599280862500308   F   F   F
  0.5000000000000000  0.5000000000000000  0.3797842587500853   F   F   F
  0.7500000000000000  0.2500000000000000  0.3797842587500853   F   F   F
  0.5000000000000000  0.2488032923608479  0.6222125038602672   T   T   T
  0.7511967076391523  0.5000000000000000  0.6222125038602672   T   T   T
  0.5000000000000000  0.5000000000000000  0.5406831051953978   T   T   T
  0.7500115557737214  0.2499884442262788  0.5403355458548476   T   T   T
 
  0.00000000E+00  0.00000000E+00  0.00000000E+00
  0.00000000E+00  0.00000000E+00  0.00000000E+00
  0.00000000E+00  0.00000000E+00  0.00000000E+00
  0.00000000E+00  0.00000000E+00  0.00000000E+00
  0.00000000E+00  0.00000000E+00  0.00000000E+00
  0.00000000E+00  0.00000000E+00  0.00000000E+00
  0.00000000E+00  0.00000000E+00  0.00000000E+00
  0.00000000E+00  0.00000000E+00  0.00000000E+00
  0.00000000E+00  0.00000000E+00  0.00000000E+00
  0.00000000E+00  0.00000000E+00  0.00000000E+00
  0.00000000E+00  0.00000000E+00  0.00000000E+00
  0.00000000E+00  0.00000000E+00  0.00000000E+00
  0.00000000E+00  0.00000000E+00  0.00000000E+00
  0.00000000E+00  0.00000000E+00  0.00000000E+00
  0.00000000E+00  0.00000000E+00  0.00000000E+00
  0.00000000E+00  0.00000000E+00  0.00000000E+00
  0.00000000E+00  0.00000000E+00  0.00000000E+00
  0.00000000E+00  0.00000000E+00  0.00000000E+00
  0.00000000E+00  0.00000000E+00  0.00000000E+00
  0.00000000E+00  0.00000000E+00  0.00000000E+00
  0.00000000E+00  0.00000000E+00  0.00000000E+00
  0.00000000E+00  0.00000000E+00  0.00000000E+00
  0.00000000E+00  0.00000000E+00  0.00000000E+00
  0.00000000E+00  0.00000000E+00  0.00000000E+00
  0.00000000E+00  0.00000000E+00  0.00000000E+00
  0.00000000E+00  0.00000000E+00  0.00000000E+00
  0.00000000E+00  0.00000000E+00  0.00000000E+00
  0.00000000E+00  0.00000000E+00  0.00000000E+00
  0.00000000E+00  0.00000000E+00  0.00000000E+00
  0.00000000E+00  0.00000000E+00  0.00000000E+00
  0.00000000E+00  0.00000000E+00  0.00000000E+00
  0.00000000E+00  0.00000000E+00  0.00000000E+00
  0.00000000E+00  0.00000000E+00  0.00000000E+00
  0.00000000E+00  0.00000000E+00  0.00000000E+00
  0.00000000E+00  0.00000000E+00  0.00000000E+00
  0.00000000E+00  0.00000000E+00  0.00000000E+00
  0.00000000E+00  0.00000000E+00  0.00000000E+00
  0.00000000E+00  0.00000000E+00  0.00000000E+00
  0.00000000E+00  0.00000000E+00  0.00000000E+00
  0.00000000E+00  0.00000000E+00  0.00000000E+00
  0.00000000E+00  0.00000000E+00  0.00000000E+00
  0.00000000E+00  0.00000000E+00  0.00000000E+00
  0.00000000E+00  0.00000000E+00  0.00000000E+00
  0.00000000E+00  0.00000000E+00  0.00000000E+00
  0.00000000E+00  0.00000000E+00  0.00000000E+00
  0.00000000E+00  0.00000000E+00  0.00000000E+00
  0.00000000E+00  0.00000000E+00  0.00000000E+00
  0.00000000E+00  0.00000000E+00  0.00000000E+00
  0.00000000E+00  0.00000000E+00  0.00000000E+00
  0.00000000E+00  0.00000000E+00  0.00000000E+00
  0.00000000E+00  0.00000000E+00  0.00000000E+00
  0.00000000E+00  0.00000000E+00  0.00000000E+00
  0.00000000E+00  0.00000000E+00  0.00000000E+00
  0.00000000E+00  0.00000000E+00  0.00000000E+00
  0.00000000E+00  0.00000000E+00  0.00000000E+00
  0.00000000E+00  0.00000000E+00  0.00000000E+00
  0.00000000E+00  0.00000000E+00  0.00000000E+00
  0.00000000E+00  0.00000000E+00  0.00000000E+00
  0.00000000E+00  0.00000000E+00  0.00000000E+00
  0.00000000E+00  0.00000000E+00  0.00000000E+00
  0.00000000E+00  0.00000000E+00  0.00000000E+00
  0.00000000E+00  0.00000000E+00  0.00000000E+00
  0.00000000E+00  0.00000000E+00  0.00000000E+00
  0.00000000E+00  0.00000000E+00  0.00000000E+00
  0.00000000E+00  0.00000000E+00  0.00000000E+00
  0.00000000E+00  0.00000000E+00  0.00000000E+00
