 C  O Mg  O                             
   1.0000000000000000     
     8.4048619949579724    0.0000000000000000    0.0000000000000000
     0.0000000000000000    8.4048619949579724    0.0000000000000000
     0.0000000000000000    0.0000000000000000   21.3036464962184837
   C    O    Mg   O 
     1     1    32    32
Selective dynamics
Direct
  0.5000000000000000  0.5000000000000000  0.7677317064399034   T   T   T
  0.4999999999999999  0.4999999999999999  0.8191314353417749   T   T   T
  0.2500000000000000  0.0000000000000000  0.3520524057386751   F   F   F
  0.5000000000000000  0.2500000000000000  0.3520524057386751   F   F   F
  0.2500000000000000  0.2500000000000000  0.4506841352462274   F   F   F
  0.5000000000000000  0.0000000000000000  0.4506841352462274   F   F   F
  0.2501074731815862  0.0000000000000000  0.5497399547321891   F   F   F
  0.5000000000000000  0.2505181320480858  0.5500137036377808   F   F   F
  0.2497434855491107  0.2497434855491107  0.6474479238104180   F   F   F
  0.5000000000000000  0.0000000000000000  0.6475794426442008   F   F   F
  0.2500000000000000  0.5000000000000000  0.3520524057386751   F   F   F
  0.5000000000000000  0.7500000000000000  0.3520524057386751   F   F   F
  0.2500000000000000  0.7500000000000000  0.4506841352462274   F   F   F
  0.5000000000000000  0.5000000000000000  0.4506841352462274   F   F   F
  0.2505181320480858  0.5000000000000000  0.5500137036377808   F   F   F
  0.5000000000000000  0.7494818679519142  0.5500137036377808   F   F   F
  0.2497434855491107  0.7502565144508893  0.6474479238104180   F   F   F
  0.5000000000000000  0.5000000000000000  0.6501920445487173   F   F   F
  0.7500000000000000  0.0000000000000000  0.3520524057386751   F   F   F
  0.0000000000000000  0.2500000000000000  0.3520524057386751   F   F   F
  0.7500000000000000  0.2500000000000000  0.4506841352462274   F   F   F
  0.0000000000000000  0.0000000000000000  0.4506841352462274   F   F   F
  0.7498925268184138  0.0000000000000000  0.5497399547321891   F   F   F
  0.0000000000000000  0.2501074731815862  0.5497399547321891   F   F   F
  0.7502565144508893  0.2497434855491107  0.6474479238104180   F   F   F
  0.0000000000000000  0.0000000000000000  0.6476771877836924   F   F   F
  0.7500000000000000  0.5000000000000000  0.3520524057386751   F   F   F
  0.0000000000000000  0.7500000000000000  0.3520524057386751   F   F   F
  0.7500000000000000  0.7500000000000000  0.4506841352462274   F   F   F
  0.0000000000000000  0.5000000000000000  0.4506841352462274   F   F   F
  0.7494818679519142  0.5000000000000000  0.5500137036377808   F   F   F
  0.0000000000000000  0.7498925268184138  0.5497399547321891   F   F   F
  0.7502565144508893  0.7502565144508893  0.6474479238104180   F   F   F
  0.0000000000000000  0.5000000000000000  0.6475794426442008   F   F   F
  0.2500000000000000  0.0000000000000000  0.4506841352462274   F   F   F
  0.5000000000000000  0.2500000000000000  0.4506841352462274   F   F   F
  0.2500000000000000  0.2500000000000000  0.3520524057386751   F   F   F
  0.5000000000000000  0.0000000000000000  0.3520524057386751   F   F   F
  0.2497428822866539  0.0000000000000000  0.6498062427558580   F   F   F
  0.5000000000000000  0.2488853634249750  0.6499161890804999   F   F   F
  0.2499620426183782  0.2499620426183782  0.5495517536635433   F   F   F
  0.5000000000000000  0.0000000000000000  0.5494980769921511   F   F   F
  0.2500000000000000  0.5000000000000000  0.4506841352462274   F   F   F
  0.5000000000000000  0.7500000000000000  0.4506841352462274   F   F   F
  0.2500000000000000  0.7500000000000000  0.3520524057386751   F   F   F
  0.5000000000000000  0.5000000000000000  0.3520524057386751   F   F   F
  0.2488853634249750  0.5000000000000000  0.6499161890804999   F   F   F
  0.5000000000000000  0.7511146365750250  0.6499161890804999   F   F   F
  0.2499620426183782  0.7500379573816218  0.5495517536635433   F   F   F
  0.5000000000000000  0.5000000000000000  0.5500070894831239   F   F   F
  0.7500000000000000  0.0000000000000000  0.4506841352462274   F   F   F
  0.0000000000000000  0.2500000000000000  0.4506841352462274   F   F   F
  0.7500000000000000  0.2500000000000000  0.3520524057386751   F   F   F
  0.0000000000000000  0.0000000000000000  0.3520524057386751   F   F   F
  0.7502571177133461  0.0000000000000000  0.6498062427558580   F   F   F
  0.0000000000000000  0.2497428822866539  0.6498062427558580   F   F   F
  0.7500379573816218  0.2499620426183782  0.5495517536635433   F   F   F
  0.0000000000000000  0.0000000000000000  0.5495177570922252   F   F   F
  0.7500000000000000  0.5000000000000000  0.4506841352462274   F   F   F
  0.0000000000000000  0.7500000000000000  0.4506841352462274   F   F   F
  0.7500000000000000  0.7500000000000000  0.3520524057386751   F   F   F
  0.0000000000000000  0.5000000000000000  0.3520524057386751   F   F   F
  0.7511146365750250  0.5000000000000000  0.6499161890804999   F   F   F
  0.0000000000000000  0.7502571177133461  0.6498062427558580   F   F   F
  0.7500379573816218  0.7500379573816218  0.5495517536635433   F   F   F
  0.0000000000000000  0.5000000000000000  0.5494980769921511   F   F   F

  0.00000000E+00  0.00000000E+00  0.00000000E+00
  0.00000000E+00  0.00000000E+00  0.00000000E+00
  0.00000000E+00  0.00000000E+00  0.00000000E+00
  0.00000000E+00  0.00000000E+00  0.00000000E+00
  0.00000000E+00  0.00000000E+00  0.00000000E+00
  0.00000000E+00  0.00000000E+00  0.00000000E+00
  0.00000000E+00  0.00000000E+00  0.00000000E+00
  0.00000000E+00  0.00000000E+00  0.00000000E+00
  0.00000000E+00  0.00000000E+00  0.00000000E+00
  0.00000000E+00  0.00000000E+00  0.00000000E+00
  0.00000000E+00  0.00000000E+00  0.00000000E+00
  0.00000000E+00  0.00000000E+00  0.00000000E+00
  0.00000000E+00  0.00000000E+00  0.00000000E+00
  0.00000000E+00  0.00000000E+00  0.00000000E+00
  0.00000000E+00  0.00000000E+00  0.00000000E+00
  0.00000000E+00  0.00000000E+00  0.00000000E+00
  0.00000000E+00  0.00000000E+00  0.00000000E+00
  0.00000000E+00  0.00000000E+00  0.00000000E+00
  0.00000000E+00  0.00000000E+00  0.00000000E+00
  0.00000000E+00  0.00000000E+00  0.00000000E+00
  0.00000000E+00  0.00000000E+00  0.00000000E+00
  0.00000000E+00  0.00000000E+00  0.00000000E+00
  0.00000000E+00  0.00000000E+00  0.00000000E+00
  0.00000000E+00  0.00000000E+00  0.00000000E+00
  0.00000000E+00  0.00000000E+00  0.00000000E+00
  0.00000000E+00  0.00000000E+00  0.00000000E+00
  0.00000000E+00  0.00000000E+00  0.00000000E+00
  0.00000000E+00  0.00000000E+00  0.00000000E+00
  0.00000000E+00  0.00000000E+00  0.00000000E+00
  0.00000000E+00  0.00000000E+00  0.00000000E+00
  0.00000000E+00  0.00000000E+00  0.00000000E+00
  0.00000000E+00  0.00000000E+00  0.00000000E+00
  0.00000000E+00  0.00000000E+00  0.00000000E+00
  0.00000000E+00  0.00000000E+00  0.00000000E+00
  0.00000000E+00  0.00000000E+00  0.00000000E+00
  0.00000000E+00  0.00000000E+00  0.00000000E+00
  0.00000000E+00  0.00000000E+00  0.00000000E+00
  0.00000000E+00  0.00000000E+00  0.00000000E+00
  0.00000000E+00  0.00000000E+00  0.00000000E+00
  0.00000000E+00  0.00000000E+00  0.00000000E+00
  0.00000000E+00  0.00000000E+00  0.00000000E+00
  0.00000000E+00  0.00000000E+00  0.00000000E+00
  0.00000000E+00  0.00000000E+00  0.00000000E+00
  0.00000000E+00  0.00000000E+00  0.00000000E+00
  0.00000000E+00  0.00000000E+00  0.00000000E+00
  0.00000000E+00  0.00000000E+00  0.00000000E+00
  0.00000000E+00  0.00000000E+00  0.00000000E+00
  0.00000000E+00  0.00000000E+00  0.00000000E+00
  0.00000000E+00  0.00000000E+00  0.00000000E+00
  0.00000000E+00  0.00000000E+00  0.00000000E+00
  0.00000000E+00  0.00000000E+00  0.00000000E+00
  0.00000000E+00  0.00000000E+00  0.00000000E+00
  0.00000000E+00  0.00000000E+00  0.00000000E+00
  0.00000000E+00  0.00000000E+00  0.00000000E+00
  0.00000000E+00  0.00000000E+00  0.00000000E+00
  0.00000000E+00  0.00000000E+00  0.00000000E+00
  0.00000000E+00  0.00000000E+00  0.00000000E+00
  0.00000000E+00  0.00000000E+00  0.00000000E+00
  0.00000000E+00  0.00000000E+00  0.00000000E+00
  0.00000000E+00  0.00000000E+00  0.00000000E+00
  0.00000000E+00  0.00000000E+00  0.00000000E+00
  0.00000000E+00  0.00000000E+00  0.00000000E+00
  0.00000000E+00  0.00000000E+00  0.00000000E+00
  0.00000000E+00  0.00000000E+00  0.00000000E+00
  0.00000000E+00  0.00000000E+00  0.00000000E+00
  0.00000000E+00  0.00000000E+00  0.00000000E+00
