 C  O                                   
   1.00000000000000     
     8.4409846541513982    0.0000000000000000    0.0000000000000000
     0.0000000000000000    8.4409846541513982    0.0000000000000000
     0.0000000000000000    0.0000000000000000   25.9659824075199559
   C    O 
     1     1
Direct
  0.5000000000000000  0.5000000000000000  0.6477383496951532
  0.5000000000000000  0.5000000000000000  0.6919045898420109
 
  0.00000000E+00  0.00000000E+00  0.00000000E+00
  0.00000000E+00  0.00000000E+00  0.00000000E+00
