 C  O Mg  O                             
   1.0000000000000000     
    12.6614769812270964    0.0000000000000000    0.0000000000000000
     0.0000000000000000   12.6614769812270964    0.0000000000000000
     0.0000000000000000    0.0000000000000000   21.3307384906135482
   C    O    Mg   O 
     1     1    72    72
Selective dynamics
Direct
  0.5000000000000000  0.5000000000000000  0.7653401209506927   T   T   T
  0.5000000000000000  0.5000000000000000  0.8190975419845232   T   T   T
  0.1666666666666643  0.0000000000000000  0.3516052668922072   F   F   F
  0.3333333333333357  0.1666666666666643  0.3516052668922072   F   F   F
  0.1666666666666643  0.1666666666666643  0.4505350889640667   F   F   F
  0.3333333333333357  0.0000000000000000  0.4505350889640667   F   F   F
  0.1666354935542092  0.0000000000000000  0.5501329685412926   T   T   T
  0.3333571633539233  0.1666224739905567  0.5501008264151271   T   T   T
  0.1666256916315119  0.1666256916315119  0.6487848474786664   T   T   T
  0.3333029711788044  0.0000000000000000  0.6487760496327056   T   T   T
  0.1666666666666643  0.3333333333333357  0.3516052668922072   F   F   F
  0.3333333333333357  0.5000000000000000  0.3516052668922072   F   F   F
  0.1666666666666643  0.5000000000000000  0.4505350889640667   F   F   F
  0.3333333333333357  0.3333333333333357  0.4505350889640667   F   F   F
  0.1666224739905567  0.3333571633539233  0.5501008264151271   T   T   T
  0.3335821306080511  0.5000000000000000  0.5502492927629310   T   T   T
  0.1664837358224085  0.5000000000000000  0.6486964067678919   T   T   T
  0.3332507773450467  0.3332507773450467  0.6485743891006137   T   T   T
  0.1666666666666643  0.6666666666666643  0.3516052668922072   F   F   F
  0.3333333333333357  0.8333333333333357  0.3516052668922072   F   F   F
  0.1666666666666643  0.8333333333333357  0.4505350889640667   F   F   F
  0.3333333333333357  0.6666666666666643  0.4505350889640667   F   F   F
  0.1666224739905567  0.6666428366460765  0.5501008264151271   T   T   T
  0.3333571633539233  0.8333775260094433  0.5501008264151271   T   T   T
  0.1666256916315119  0.8333743083684880  0.6487848474786664   T   T   T
  0.3332507773450467  0.6667492226549536  0.6485743891006137   T   T   T
  0.5000000000000000  0.0000000000000000  0.3516052668922072   F   F   F
  0.6666666666666643  0.1666666666666643  0.3516052668922072   F   F   F
  0.5000000000000000  0.1666666666666643  0.4505350889640667   F   F   F
  0.6666666666666643  0.0000000000000000  0.4505350889640667   F   F   F
  0.5000000000000000  0.0000000000000000  0.5500846815127569   T   T   T
  0.6666428366460765  0.1666224739905567  0.5501008264151271   T   T   T
  0.5000000000000000  0.1664837358224085  0.6486964067678919   T   T   T
  0.6666970288211960  0.0000000000000000  0.6487760496327056   T   T   T
  0.5000000000000000  0.3333333333333357  0.3516052668922072   F   F   F
  0.6666666666666643  0.5000000000000000  0.3516052668922072   F   F   F
  0.5000000000000000  0.5000000000000000  0.4505350889640667   F   F   F
  0.6666666666666643  0.3333333333333357  0.4505350889640667   F   F   F
  0.5000000000000000  0.3335821306080511  0.5502492927629310   T   T   T
  0.6664178693919484  0.5000000000000000  0.5502492927629310   T   T   T
  0.5000000000000000  0.5000000000000000  0.6507054718698100   T   T   T
  0.6667492226549536  0.3332507773450467  0.6485743891006137   T   T   T
  0.5000000000000000  0.6666666666666643  0.3516052668922072   F   F   F
  0.6666666666666643  0.8333333333333357  0.3516052668922072   F   F   F
  0.5000000000000000  0.8333333333333357  0.4505350889640667   F   F   F
  0.6666666666666643  0.6666666666666643  0.4505350889640667   F   F   F
  0.5000000000000000  0.6664178693919484  0.5502492927629310   T   T   T
  0.6666428366460765  0.8333775260094433  0.5501008264151271   T   T   T
  0.5000000000000000  0.8335162641775912  0.6486964067678919   T   T   T
  0.6667492226549536  0.6667492226549536  0.6485743891006137   T   T   T
  0.8333333333333357  0.0000000000000000  0.3516052668922072   F   F   F
  0.0000000000000000  0.1666666666666643  0.3516052668922072   F   F   F
  0.8333333333333357  0.1666666666666643  0.4505350889640667   F   F   F
  0.0000000000000000  0.0000000000000000  0.4505350889640667   F   F   F
  0.8333645064457906  0.0000000000000000  0.5501329685412926   T   T   T
  0.0000000000000000  0.1666354935542092  0.5501329685412926   T   T   T
  0.8333743083684880  0.1666256916315119  0.6487848474786664   T   T   T
  0.0000000000000000  0.0000000000000000  0.6487947385770766   T   T   T
  0.8333333333333357  0.3333333333333357  0.3516052668922072   F   F   F
  0.0000000000000000  0.5000000000000000  0.3516052668922072   F   F   F
  0.8333333333333357  0.5000000000000000  0.4505350889640667   F   F   F
  0.0000000000000000  0.3333333333333357  0.4505350889640667   F   F   F
  0.8333775260094433  0.3333571633539233  0.5501008264151271   T   T   T
  0.0000000000000000  0.5000000000000000  0.5500846815127569   T   T   T
  0.8335162641775912  0.5000000000000000  0.6486964067678919   T   T   T
  0.0000000000000000  0.3333029711788044  0.6487760496327056   T   T   T
  0.8333333333333357  0.6666666666666643  0.3516052668922072   F   F   F
  0.0000000000000000  0.8333333333333357  0.3516052668922072   F   F   F
  0.8333333333333357  0.8333333333333357  0.4505350889640667   F   F   F
  0.0000000000000000  0.6666666666666643  0.4505350889640667   F   F   F
  0.8333775260094433  0.6666428366460765  0.5501008264151271   T   T   T
  0.0000000000000000  0.8333645064457906  0.5501329685412926   T   T   T
  0.8333743083684880  0.8333743083684880  0.6487848474786664   T   T   T
  0.0000000000000000  0.6666970288211960  0.6487760496327056   T   T   T
  0.1666666666666643  0.0000000000000000  0.4505350889640667   F   F   F
  0.3333333333333357  0.1666666666666643  0.4505350889640667   F   F   F
  0.1666666666666643  0.1666666666666643  0.3516052668922072   F   F   F
  0.3333333333333357  0.0000000000000000  0.3516052668922072   F   F   F
  0.1666376813395729  0.0000000000000000  0.6509131743619594   T   T   T
  0.3332367297724959  0.1665953245734971  0.6509275105470936   T   T   T
  0.1666659148341876  0.1666659148341876  0.5498392110023178   T   T   T
  0.3333150194433548  0.0000000000000000  0.5498441548274265   T   T   T
  0.1666666666666643  0.3333333333333357  0.4505350889640667   F   F   F
  0.3333333333333357  0.5000000000000000  0.4505350889640667   F   F   F
  0.1666666666666643  0.5000000000000000  0.3516052668922072   F   F   F
  0.3333333333333357  0.3333333333333357  0.3516052668922072   F   F   F
  0.1665953245734971  0.3332367297724959  0.6509275105470936   T   T   T
  0.3325031791122685  0.5000000000000000  0.6508351930569877   T   T   T
  0.1666034366579119  0.5000000000000000  0.5497950051986803   T   T   T
  0.3332871092867907  0.3332871092867907  0.5498363677118737   T   T   T
  0.1666666666666643  0.6666666666666643  0.4505350889640667   F   F   F
  0.3333333333333357  0.8333333333333357  0.4505350889640667   F   F   F
  0.1666666666666643  0.8333333333333357  0.3516052668922072   F   F   F
  0.3333333333333357  0.6666666666666643  0.3516052668922072   F   F   F
  0.1665953245734971  0.6667632702275045  0.6509275105470936   T   T   T
  0.3332367297724959  0.8334046754265029  0.6509275105470936   T   T   T
  0.1666659148341876  0.8333340851658124  0.5498392110023178   T   T   T
  0.3332871092867907  0.6667128907132096  0.5498363677118737   T   T   T
  0.5000000000000000  0.0000000000000000  0.4505350889640667   F   F   F
  0.6666666666666643  0.1666666666666643  0.4505350889640667   F   F   F
  0.5000000000000000  0.1666666666666643  0.3516052668922072   F   F   F
  0.6666666666666643  0.0000000000000000  0.3516052668922072   F   F   F
  0.5000000000000000  0.0000000000000000  0.6509009625368775   T   T   T
  0.6667632702275045  0.1665953245734971  0.6509275105470936   T   T   T
  0.5000000000000000  0.1666034366579119  0.5497950051986803   T   T   T
  0.6666849805566454  0.0000000000000000  0.5498441548274265   T   T   T
  0.5000000000000000  0.3333333333333357  0.4505350889640667   F   F   F
  0.6666666666666643  0.5000000000000000  0.4505350889640667   F   F   F
  0.5000000000000000  0.5000000000000000  0.3516052668922072   F   F   F
  0.6666666666666643  0.3333333333333357  0.3516052668922072   F   F   F
  0.5000000000000000  0.3325031791122685  0.6508351930569877   T   T   T
  0.6674968208877315  0.5000000000000000  0.6508351930569877   T   T   T
  0.5000000000000000  0.5000000000000000  0.5502215354540066   T   T   T
  0.6667128907132096  0.3332871092867907  0.5498363677118737   T   T   T
  0.5000000000000000  0.6666666666666643  0.4505350889640667   F   F   F
  0.6666666666666643  0.8333333333333357  0.4505350889640667   F   F   F
  0.5000000000000000  0.8333333333333357  0.3516052668922072   F   F   F
  0.6666666666666643  0.6666666666666643  0.3516052668922072   F   F   F
  0.5000000000000000  0.6674968208877315  0.6508351930569877   T   T   T
  0.6667632702275045  0.8334046754265029  0.6509275105470936   T   T   T
  0.5000000000000000  0.8333965633420879  0.5497950051986803   T   T   T
  0.6667128907132096  0.6667128907132096  0.5498363677118737   T   T   T
  0.8333333333333357  0.0000000000000000  0.4505350889640667   F   F   F
  0.0000000000000000  0.1666666666666643  0.4505350889640667   F   F   F
  0.8333333333333357  0.1666666666666643  0.3516052668922072   F   F   F
  0.0000000000000000  0.0000000000000000  0.3516052668922072   F   F   F
  0.8333623186604270  0.0000000000000000  0.6509131743619594   T   T   T
  0.0000000000000000  0.1666376813395729  0.6509131743619594   T   T   T
  0.8333340851658124  0.1666659148341876  0.5498392110023178   T   T   T
  0.0000000000000000  0.0000000000000000  0.5498449284777127   T   T   T
  0.8333333333333357  0.3333333333333357  0.4505350889640667   F   F   F
  0.0000000000000000  0.5000000000000000  0.4505350889640667   F   F   F
  0.8333333333333357  0.5000000000000000  0.3516052668922072   F   F   F
  0.0000000000000000  0.3333333333333357  0.3516052668922072   F   F   F
  0.8334046754265029  0.3332367297724959  0.6509275105470936   T   T   T
  0.0000000000000000  0.5000000000000000  0.6509009625368775   T   T   T
  0.8333965633420879  0.5000000000000000  0.5497950051986803   T   T   T
  0.0000000000000000  0.3333150194433548  0.5498441548274265   T   T   T
  0.8333333333333357  0.6666666666666643  0.4505350889640667   F   F   F
  0.0000000000000000  0.8333333333333357  0.4505350889640667   F   F   F
  0.8333333333333357  0.8333333333333357  0.3516052668922072   F   F   F
  0.0000000000000000  0.6666666666666643  0.3516052668922072   F   F   F
  0.8334046754265029  0.6667632702275045  0.6509275105470936   T   T   T
  0.0000000000000000  0.8333623186604270  0.6509131743619594   T   T   T
  0.8333340851658124  0.8333340851658124  0.5498392110023178   T   T   T
  0.0000000000000000  0.6666849805566454  0.5498441548274265   T   T   T

  0.00000000E+00  0.00000000E+00  0.00000000E+00
  0.00000000E+00  0.00000000E+00  0.00000000E+00
  0.00000000E+00  0.00000000E+00  0.00000000E+00
  0.00000000E+00  0.00000000E+00  0.00000000E+00
  0.00000000E+00  0.00000000E+00  0.00000000E+00
  0.00000000E+00  0.00000000E+00  0.00000000E+00
  0.00000000E+00  0.00000000E+00  0.00000000E+00
  0.00000000E+00  0.00000000E+00  0.00000000E+00
  0.00000000E+00  0.00000000E+00  0.00000000E+00
  0.00000000E+00  0.00000000E+00  0.00000000E+00
  0.00000000E+00  0.00000000E+00  0.00000000E+00
  0.00000000E+00  0.00000000E+00  0.00000000E+00
  0.00000000E+00  0.00000000E+00  0.00000000E+00
  0.00000000E+00  0.00000000E+00  0.00000000E+00
  0.00000000E+00  0.00000000E+00  0.00000000E+00
  0.00000000E+00  0.00000000E+00  0.00000000E+00
  0.00000000E+00  0.00000000E+00  0.00000000E+00
  0.00000000E+00  0.00000000E+00  0.00000000E+00
  0.00000000E+00  0.00000000E+00  0.00000000E+00
  0.00000000E+00  0.00000000E+00  0.00000000E+00
  0.00000000E+00  0.00000000E+00  0.00000000E+00
  0.00000000E+00  0.00000000E+00  0.00000000E+00
  0.00000000E+00  0.00000000E+00  0.00000000E+00
  0.00000000E+00  0.00000000E+00  0.00000000E+00
  0.00000000E+00  0.00000000E+00  0.00000000E+00
  0.00000000E+00  0.00000000E+00  0.00000000E+00
  0.00000000E+00  0.00000000E+00  0.00000000E+00
  0.00000000E+00  0.00000000E+00  0.00000000E+00
  0.00000000E+00  0.00000000E+00  0.00000000E+00
  0.00000000E+00  0.00000000E+00  0.00000000E+00
  0.00000000E+00  0.00000000E+00  0.00000000E+00
  0.00000000E+00  0.00000000E+00  0.00000000E+00
  0.00000000E+00  0.00000000E+00  0.00000000E+00
  0.00000000E+00  0.00000000E+00  0.00000000E+00
  0.00000000E+00  0.00000000E+00  0.00000000E+00
  0.00000000E+00  0.00000000E+00  0.00000000E+00
  0.00000000E+00  0.00000000E+00  0.00000000E+00
  0.00000000E+00  0.00000000E+00  0.00000000E+00
  0.00000000E+00  0.00000000E+00  0.00000000E+00
  0.00000000E+00  0.00000000E+00  0.00000000E+00
  0.00000000E+00  0.00000000E+00  0.00000000E+00
  0.00000000E+00  0.00000000E+00  0.00000000E+00
  0.00000000E+00  0.00000000E+00  0.00000000E+00
  0.00000000E+00  0.00000000E+00  0.00000000E+00
  0.00000000E+00  0.00000000E+00  0.00000000E+00
  0.00000000E+00  0.00000000E+00  0.00000000E+00
  0.00000000E+00  0.00000000E+00  0.00000000E+00
  0.00000000E+00  0.00000000E+00  0.00000000E+00
  0.00000000E+00  0.00000000E+00  0.00000000E+00
  0.00000000E+00  0.00000000E+00  0.00000000E+00
  0.00000000E+00  0.00000000E+00  0.00000000E+00
  0.00000000E+00  0.00000000E+00  0.00000000E+00
  0.00000000E+00  0.00000000E+00  0.00000000E+00
  0.00000000E+00  0.00000000E+00  0.00000000E+00
  0.00000000E+00  0.00000000E+00  0.00000000E+00
  0.00000000E+00  0.00000000E+00  0.00000000E+00
  0.00000000E+00  0.00000000E+00  0.00000000E+00
  0.00000000E+00  0.00000000E+00  0.00000000E+00
  0.00000000E+00  0.00000000E+00  0.00000000E+00
  0.00000000E+00  0.00000000E+00  0.00000000E+00
  0.00000000E+00  0.00000000E+00  0.00000000E+00
  0.00000000E+00  0.00000000E+00  0.00000000E+00
  0.00000000E+00  0.00000000E+00  0.00000000E+00
  0.00000000E+00  0.00000000E+00  0.00000000E+00
  0.00000000E+00  0.00000000E+00  0.00000000E+00
  0.00000000E+00  0.00000000E+00  0.00000000E+00
  0.00000000E+00  0.00000000E+00  0.00000000E+00
  0.00000000E+00  0.00000000E+00  0.00000000E+00
  0.00000000E+00  0.00000000E+00  0.00000000E+00
  0.00000000E+00  0.00000000E+00  0.00000000E+00
  0.00000000E+00  0.00000000E+00  0.00000000E+00
  0.00000000E+00  0.00000000E+00  0.00000000E+00
  0.00000000E+00  0.00000000E+00  0.00000000E+00
  0.00000000E+00  0.00000000E+00  0.00000000E+00
  0.00000000E+00  0.00000000E+00  0.00000000E+00
  0.00000000E+00  0.00000000E+00  0.00000000E+00
  0.00000000E+00  0.00000000E+00  0.00000000E+00
  0.00000000E+00  0.00000000E+00  0.00000000E+00
  0.00000000E+00  0.00000000E+00  0.00000000E+00
  0.00000000E+00  0.00000000E+00  0.00000000E+00
  0.00000000E+00  0.00000000E+00  0.00000000E+00
  0.00000000E+00  0.00000000E+00  0.00000000E+00
  0.00000000E+00  0.00000000E+00  0.00000000E+00
  0.00000000E+00  0.00000000E+00  0.00000000E+00
  0.00000000E+00  0.00000000E+00  0.00000000E+00
  0.00000000E+00  0.00000000E+00  0.00000000E+00
  0.00000000E+00  0.00000000E+00  0.00000000E+00
  0.00000000E+00  0.00000000E+00  0.00000000E+00
  0.00000000E+00  0.00000000E+00  0.00000000E+00
  0.00000000E+00  0.00000000E+00  0.00000000E+00
  0.00000000E+00  0.00000000E+00  0.00000000E+00
  0.00000000E+00  0.00000000E+00  0.00000000E+00
  0.00000000E+00  0.00000000E+00  0.00000000E+00
  0.00000000E+00  0.00000000E+00  0.00000000E+00
  0.00000000E+00  0.00000000E+00  0.00000000E+00
  0.00000000E+00  0.00000000E+00  0.00000000E+00
  0.00000000E+00  0.00000000E+00  0.00000000E+00
  0.00000000E+00  0.00000000E+00  0.00000000E+00
  0.00000000E+00  0.00000000E+00  0.00000000E+00
  0.00000000E+00  0.00000000E+00  0.00000000E+00
  0.00000000E+00  0.00000000E+00  0.00000000E+00
  0.00000000E+00  0.00000000E+00  0.00000000E+00
  0.00000000E+00  0.00000000E+00  0.00000000E+00
  0.00000000E+00  0.00000000E+00  0.00000000E+00
  0.00000000E+00  0.00000000E+00  0.00000000E+00
  0.00000000E+00  0.00000000E+00  0.00000000E+00
  0.00000000E+00  0.00000000E+00  0.00000000E+00
  0.00000000E+00  0.00000000E+00  0.00000000E+00
  0.00000000E+00  0.00000000E+00  0.00000000E+00
  0.00000000E+00  0.00000000E+00  0.00000000E+00
  0.00000000E+00  0.00000000E+00  0.00000000E+00
  0.00000000E+00  0.00000000E+00  0.00000000E+00
  0.00000000E+00  0.00000000E+00  0.00000000E+00
  0.00000000E+00  0.00000000E+00  0.00000000E+00
  0.00000000E+00  0.00000000E+00  0.00000000E+00
  0.00000000E+00  0.00000000E+00  0.00000000E+00
  0.00000000E+00  0.00000000E+00  0.00000000E+00
  0.00000000E+00  0.00000000E+00  0.00000000E+00
  0.00000000E+00  0.00000000E+00  0.00000000E+00
  0.00000000E+00  0.00000000E+00  0.00000000E+00
  0.00000000E+00  0.00000000E+00  0.00000000E+00
  0.00000000E+00  0.00000000E+00  0.00000000E+00
  0.00000000E+00  0.00000000E+00  0.00000000E+00
  0.00000000E+00  0.00000000E+00  0.00000000E+00
  0.00000000E+00  0.00000000E+00  0.00000000E+00
  0.00000000E+00  0.00000000E+00  0.00000000E+00
  0.00000000E+00  0.00000000E+00  0.00000000E+00
  0.00000000E+00  0.00000000E+00  0.00000000E+00
  0.00000000E+00  0.00000000E+00  0.00000000E+00
  0.00000000E+00  0.00000000E+00  0.00000000E+00
  0.00000000E+00  0.00000000E+00  0.00000000E+00
  0.00000000E+00  0.00000000E+00  0.00000000E+00
  0.00000000E+00  0.00000000E+00  0.00000000E+00
  0.00000000E+00  0.00000000E+00  0.00000000E+00
  0.00000000E+00  0.00000000E+00  0.00000000E+00
  0.00000000E+00  0.00000000E+00  0.00000000E+00
  0.00000000E+00  0.00000000E+00  0.00000000E+00
  0.00000000E+00  0.00000000E+00  0.00000000E+00
  0.00000000E+00  0.00000000E+00  0.00000000E+00
  0.00000000E+00  0.00000000E+00  0.00000000E+00
  0.00000000E+00  0.00000000E+00  0.00000000E+00
  0.00000000E+00  0.00000000E+00  0.00000000E+00
  0.00000000E+00  0.00000000E+00  0.00000000E+00
  0.00000000E+00  0.00000000E+00  0.00000000E+00
  0.00000000E+00  0.00000000E+00  0.00000000E+00
  0.00000000E+00  0.00000000E+00  0.00000000E+00
