 C  O Mg  O                             
   1.0000000000000000     
    12.6614769812270964    0.0000000000000000    0.0000000000000000
     0.0000000000000000   12.6614769812270964    0.0000000000000000
     0.0000000000000000    0.0000000000000000   21.3307384906135482
   C    O    Mg   O 
     1     1    72    72
Selective dynamics
Direct
  0.5000000000000000  0.5000000000000000  0.7610872974030701   T   T   T
  0.5000000000000000  0.5000000000000000  0.8150732199966452   T   T   T
  0.1666666666666643  0.0000000000000000  0.3516052668922072   F   F   F
  0.3333333333333357  0.1666666666666643  0.3516052668922072   F   F   F
  0.1666666666666643  0.1666666666666643  0.4505350889640667   F   F   F
  0.3333333333333357  0.0000000000000000  0.4505350889640667   F   F   F
  0.1666443601338001  0.0000000000000000  0.5495958499684297   T   T   T
  0.3333624008122199  0.1666459524218381  0.5495844638223376   T   T   T
  0.1666483336643168  0.1666483336643168  0.6478444489113795   T   T   T
  0.3333384723406194  0.0000000000000000  0.6478595405135137   T   T   T
  0.1666666666666643  0.3333333333333357  0.3516052668922072   F   F   F
  0.3333333333333357  0.5000000000000000  0.3516052668922072   F   F   F
  0.1666666666666643  0.5000000000000000  0.4505350889640667   F   F   F
  0.3333333333333357  0.3333333333333357  0.4505350889640667   F   F   F
  0.1666459524218381  0.3333624008122199  0.5495844638223376   T   T   T
  0.3334546411300282  0.5000000000000000  0.5496057833680151   T   T   T
  0.1665133286266086  0.5000000000000000  0.6477708806384722   T   T   T
  0.3333140355823595  0.3333140355823595  0.6476656110259809   T   T   T
  0.1666666666666643  0.6666666666666643  0.3516052668922072   F   F   F
  0.3333333333333357  0.8333333333333357  0.3516052668922072   F   F   F
  0.1666666666666643  0.8333333333333357  0.4505350889640667   F   F   F
  0.3333333333333357  0.6666666666666643  0.4505350889640667   F   F   F
  0.1666459524218381  0.6666375991877799  0.5495844638223376   T   T   T
  0.3333624008122199  0.8333540475781617  0.5495844638223376   T   T   T
  0.1666483336643168  0.8333516663356831  0.6478444489113795   T   T   T
  0.3333140355823595  0.6666859644176405  0.6476656110259809   T   T   T
  0.5000000000000000  0.0000000000000000  0.3516052668922072   F   F   F
  0.6666666666666643  0.1666666666666643  0.3516052668922072   F   F   F
  0.5000000000000000  0.1666666666666643  0.4505350889640667   F   F   F
  0.6666666666666643  0.0000000000000000  0.4505350889640667   F   F   F
  0.5000000000000000  0.0000000000000000  0.5495669028664776   T   T   T
  0.6666375991877799  0.1666459524218381  0.5495844638223376   T   T   T
  0.5000000000000000  0.1665133286266086  0.6477708806384722   T   T   T
  0.6666615276593808  0.0000000000000000  0.6478595405135137   T   T   T
  0.5000000000000000  0.3333333333333357  0.3516052668922072   F   F   F
  0.6666666666666643  0.5000000000000000  0.3516052668922072   F   F   F
  0.5000000000000000  0.5000000000000000  0.4505350889640667   F   F   F
  0.6666666666666643  0.3333333333333357  0.4505350889640667   F   F   F
  0.5000000000000000  0.3334546411300282  0.5496057833680151   T   T   T
  0.6665453588699718  0.5000000000000000  0.5496057833680151   T   T   T
  0.5000000000000000  0.5000000000000000  0.6490920262675338   T   T   T
  0.6666859644176405  0.3333140355823595  0.6476656110259809   T   T   T
  0.5000000000000000  0.6666666666666643  0.3516052668922072   F   F   F
  0.6666666666666643  0.8333333333333357  0.3516052668922072   F   F   F
  0.5000000000000000  0.8333333333333357  0.4505350889640667   F   F   F
  0.6666666666666643  0.6666666666666643  0.4505350889640667   F   F   F
  0.5000000000000000  0.6665453588699718  0.5496057833680151   T   T   T
  0.6666375991877799  0.8333540475781617  0.5495844638223376   T   T   T
  0.5000000000000000  0.8334866713733914  0.6477708806384722   T   T   T
  0.6666859644176405  0.6666859644176405  0.6476656110259809   T   T   T
  0.8333333333333357  0.0000000000000000  0.3516052668922072   F   F   F
  0.0000000000000000  0.1666666666666643  0.3516052668922072   F   F   F
  0.8333333333333357  0.1666666666666643  0.4505350889640667   F   F   F
  0.0000000000000000  0.0000000000000000  0.4505350889640667   F   F   F
  0.8333556398661998  0.0000000000000000  0.5495958499684297   T   T   T
 -0.0000000000000000  0.1666443601338001  0.5495958499684297   T   T   T
  0.8333516663356831  0.1666483336643168  0.6478444489113795   T   T   T
 -0.0000000000000000  0.0000000000000000  0.6478619287352121   T   T   T
  0.8333333333333357  0.3333333333333357  0.3516052668922072   F   F   F
  0.0000000000000000  0.5000000000000000  0.3516052668922072   F   F   F
  0.8333333333333357  0.5000000000000000  0.4505350889640667   F   F   F
  0.0000000000000000  0.3333333333333357  0.4505350889640667   F   F   F
  0.8333540475781617  0.3333624008122199  0.5495844638223376   T   T   T
 -0.0000000000000000  0.5000000000000000  0.5495669028664776   T   T   T
  0.8334866713733914  0.5000000000000000  0.6477708806384722   T   T   T
 -0.0000000000000000  0.3333384723406194  0.6478595405135137   T   T   T
  0.8333333333333357  0.6666666666666643  0.3516052668922072   F   F   F
  0.0000000000000000  0.8333333333333357  0.3516052668922072   F   F   F
  0.8333333333333357  0.8333333333333357  0.4505350889640667   F   F   F
  0.0000000000000000  0.6666666666666643  0.4505350889640667   F   F   F
  0.8333540475781617  0.6666375991877799  0.5495844638223376   T   T   T
 -0.0000000000000000  0.8333556398661998  0.5495958499684297   T   T   T
  0.8333516663356831  0.8333516663356831  0.6478444489113795   T   T   T
 -0.0000000000000000  0.6666615276593808  0.6478595405135137   T   T   T
  0.1666666666666643  0.0000000000000000  0.4505350889640667   F   F   F
  0.3333333333333357  0.1666666666666643  0.4505350889640667   F   F   F
  0.1666666666666643  0.1666666666666643  0.3516052668922072   F   F   F
  0.3333333333333357  0.0000000000000000  0.3516052668922072   F   F   F
  0.1666632128568376  0.0000000000000000  0.6500298726264861   T   T   T
  0.3332736204106809  0.1666535089213645  0.6500693492554276   T   T   T
  0.1666742408918317  0.1666742408918317  0.5492656867160705   T   T   T
  0.3333197262207893  0.0000000000000000  0.5492777795744228   T   T   T
  0.1666666666666643  0.3333333333333357  0.4505350889640667   F   F   F
  0.3333333333333357  0.5000000000000000  0.4505350889640667   F   F   F
  0.1666666666666643  0.5000000000000000  0.3516052668922072   F   F   F
  0.3333333333333357  0.3333333333333357  0.3516052668922072   F   F   F
  0.1666535089213645  0.3332736204106809  0.6500693492554276   T   T   T
  0.3324552118173414  0.5000000000000000  0.6497862562071574   T   T   T
  0.1665750508131219  0.5000000000000000  0.5492116251268842   T   T   T
  0.3332993733059256  0.3332993733059256  0.5492508222139796   T   T   T
  0.1666666666666643  0.6666666666666643  0.4505350889640667   F   F   F
  0.3333333333333357  0.8333333333333357  0.4505350889640667   F   F   F
  0.1666666666666643  0.8333333333333357  0.3516052668922072   F   F   F
  0.3333333333333357  0.6666666666666643  0.3516052668922072   F   F   F
  0.1666535089213645  0.6667263795893191  0.6500693492554276   T   T   T
  0.3332736204106809  0.8333464910786357  0.6500693492554276   T   T   T
  0.1666742408918317  0.8333257591081683  0.5492656867160705   T   T   T
  0.3332993733059256  0.6667006266940746  0.5492508222139796   T   T   T
  0.5000000000000000  0.0000000000000000  0.4505350889640667   F   F   F
  0.6666666666666643  0.1666666666666643  0.4505350889640667   F   F   F
  0.5000000000000000  0.1666666666666643  0.3516052668922072   F   F   F
  0.6666666666666643  0.0000000000000000  0.3516052668922072   F   F   F
  0.5000000000000000  0.0000000000000000  0.6500379492416984   T   T   T
  0.6667263795893191  0.1666535089213645  0.6500693492554276   T   T   T
  0.5000000000000000  0.1665750508131219  0.5492116251268842   T   T   T
  0.6666802737792107  0.0000000000000000  0.5492777795744228   T   T   T
  0.5000000000000000  0.3333333333333357  0.4505350889640667   F   F   F
  0.6666666666666643  0.5000000000000000  0.4505350889640667   F   F   F
  0.5000000000000000  0.5000000000000000  0.3516052668922072   F   F   F
  0.6666666666666643  0.3333333333333357  0.3516052668922072   F   F   F
  0.5000000000000000  0.3324552118173414  0.6497862562071574   T   T   T
  0.6675447881826588  0.5000000000000000  0.6497862562071574   T   T   T
  0.5000000000000000  0.5000000000000000  0.5494761352195936   T   T   T
  0.6667006266940746  0.3332993733059256  0.5492508222139796   T   T   T
  0.5000000000000000  0.6666666666666643  0.4505350889640667   F   F   F
  0.6666666666666643  0.8333333333333357  0.4505350889640667   F   F   F
  0.5000000000000000  0.8333333333333357  0.3516052668922072   F   F   F
  0.6666666666666643  0.6666666666666643  0.3516052668922072   F   F   F
  0.5000000000000000  0.6675447881826588  0.6497862562071574   T   T   T
  0.6667263795893191  0.8333464910786357  0.6500693492554276   T   T   T
  0.5000000000000000  0.8334249491868782  0.5492116251268842   T   T   T
  0.6667006266940746  0.6667006266940746  0.5492508222139796   T   T   T
  0.8333333333333357  0.0000000000000000  0.4505350889640667   F   F   F
  0.0000000000000000  0.1666666666666643  0.4505350889640667   F   F   F
  0.8333333333333357  0.1666666666666643  0.3516052668922072   F   F   F
  0.0000000000000000  0.0000000000000000  0.3516052668922072   F   F   F
  0.8333367871431625  0.0000000000000000  0.6500298726264861   T   T   T
 -0.0000000000000000  0.1666632128568376  0.6500298726264861   T   T   T
  0.8333257591081683  0.1666742408918317  0.5492656867160705   T   T   T
 -0.0000000000000000  0.0000000000000000  0.5492672636529506   T   T   T
  0.8333333333333357  0.3333333333333357  0.4505350889640667   F   F   F
  0.0000000000000000  0.5000000000000000  0.4505350889640667   F   F   F
  0.8333333333333357  0.5000000000000000  0.3516052668922072   F   F   F
  0.0000000000000000  0.3333333333333357  0.3516052668922072   F   F   F
  0.8333464910786357  0.3332736204106809  0.6500693492554276   T   T   T
 -0.0000000000000000  0.5000000000000000  0.6500379492416984   T   T   T
  0.8334249491868782  0.5000000000000000  0.5492116251268842   T   T   T
 -0.0000000000000000  0.3333197262207893  0.5492777795744228   T   T   T
  0.8333333333333357  0.6666666666666643  0.4505350889640667   F   F   F
  0.0000000000000000  0.8333333333333357  0.4505350889640667   F   F   F
  0.8333333333333357  0.8333333333333357  0.3516052668922072   F   F   F
  0.0000000000000000  0.6666666666666643  0.3516052668922072   F   F   F
  0.8333464910786357  0.6667263795893191  0.6500693492554276   T   T   T
 -0.0000000000000000  0.8333367871431625  0.6500298726264861   T   T   T
  0.8333257591081683  0.8333257591081683  0.5492656867160705   T   T   T
 -0.0000000000000000  0.6666802737792107  0.5492777795744228   T   T   T

  0.00000000E+00  0.00000000E+00  0.00000000E+00
  0.00000000E+00  0.00000000E+00  0.00000000E+00
  0.00000000E+00  0.00000000E+00  0.00000000E+00
  0.00000000E+00  0.00000000E+00  0.00000000E+00
  0.00000000E+00  0.00000000E+00  0.00000000E+00
  0.00000000E+00  0.00000000E+00  0.00000000E+00
  0.00000000E+00  0.00000000E+00  0.00000000E+00
  0.00000000E+00  0.00000000E+00  0.00000000E+00
  0.00000000E+00  0.00000000E+00  0.00000000E+00
  0.00000000E+00  0.00000000E+00  0.00000000E+00
  0.00000000E+00  0.00000000E+00  0.00000000E+00
  0.00000000E+00  0.00000000E+00  0.00000000E+00
  0.00000000E+00  0.00000000E+00  0.00000000E+00
  0.00000000E+00  0.00000000E+00  0.00000000E+00
  0.00000000E+00  0.00000000E+00  0.00000000E+00
  0.00000000E+00  0.00000000E+00  0.00000000E+00
  0.00000000E+00  0.00000000E+00  0.00000000E+00
  0.00000000E+00  0.00000000E+00  0.00000000E+00
  0.00000000E+00  0.00000000E+00  0.00000000E+00
  0.00000000E+00  0.00000000E+00  0.00000000E+00
  0.00000000E+00  0.00000000E+00  0.00000000E+00
  0.00000000E+00  0.00000000E+00  0.00000000E+00
  0.00000000E+00  0.00000000E+00  0.00000000E+00
  0.00000000E+00  0.00000000E+00  0.00000000E+00
  0.00000000E+00  0.00000000E+00  0.00000000E+00
  0.00000000E+00  0.00000000E+00  0.00000000E+00
  0.00000000E+00  0.00000000E+00  0.00000000E+00
  0.00000000E+00  0.00000000E+00  0.00000000E+00
  0.00000000E+00  0.00000000E+00  0.00000000E+00
  0.00000000E+00  0.00000000E+00  0.00000000E+00
  0.00000000E+00  0.00000000E+00  0.00000000E+00
  0.00000000E+00  0.00000000E+00  0.00000000E+00
  0.00000000E+00  0.00000000E+00  0.00000000E+00
  0.00000000E+00  0.00000000E+00  0.00000000E+00
  0.00000000E+00  0.00000000E+00  0.00000000E+00
  0.00000000E+00  0.00000000E+00  0.00000000E+00
  0.00000000E+00  0.00000000E+00  0.00000000E+00
  0.00000000E+00  0.00000000E+00  0.00000000E+00
  0.00000000E+00  0.00000000E+00  0.00000000E+00
  0.00000000E+00  0.00000000E+00  0.00000000E+00
  0.00000000E+00  0.00000000E+00  0.00000000E+00
  0.00000000E+00  0.00000000E+00  0.00000000E+00
  0.00000000E+00  0.00000000E+00  0.00000000E+00
  0.00000000E+00  0.00000000E+00  0.00000000E+00
  0.00000000E+00  0.00000000E+00  0.00000000E+00
  0.00000000E+00  0.00000000E+00  0.00000000E+00
  0.00000000E+00  0.00000000E+00  0.00000000E+00
  0.00000000E+00  0.00000000E+00  0.00000000E+00
  0.00000000E+00  0.00000000E+00  0.00000000E+00
  0.00000000E+00  0.00000000E+00  0.00000000E+00
  0.00000000E+00  0.00000000E+00  0.00000000E+00
  0.00000000E+00  0.00000000E+00  0.00000000E+00
  0.00000000E+00  0.00000000E+00  0.00000000E+00
  0.00000000E+00  0.00000000E+00  0.00000000E+00
  0.00000000E+00  0.00000000E+00  0.00000000E+00
  0.00000000E+00  0.00000000E+00  0.00000000E+00
  0.00000000E+00  0.00000000E+00  0.00000000E+00
  0.00000000E+00  0.00000000E+00  0.00000000E+00
  0.00000000E+00  0.00000000E+00  0.00000000E+00
  0.00000000E+00  0.00000000E+00  0.00000000E+00
  0.00000000E+00  0.00000000E+00  0.00000000E+00
  0.00000000E+00  0.00000000E+00  0.00000000E+00
  0.00000000E+00  0.00000000E+00  0.00000000E+00
  0.00000000E+00  0.00000000E+00  0.00000000E+00
  0.00000000E+00  0.00000000E+00  0.00000000E+00
  0.00000000E+00  0.00000000E+00  0.00000000E+00
  0.00000000E+00  0.00000000E+00  0.00000000E+00
  0.00000000E+00  0.00000000E+00  0.00000000E+00
  0.00000000E+00  0.00000000E+00  0.00000000E+00
  0.00000000E+00  0.00000000E+00  0.00000000E+00
  0.00000000E+00  0.00000000E+00  0.00000000E+00
  0.00000000E+00  0.00000000E+00  0.00000000E+00
  0.00000000E+00  0.00000000E+00  0.00000000E+00
  0.00000000E+00  0.00000000E+00  0.00000000E+00
  0.00000000E+00  0.00000000E+00  0.00000000E+00
  0.00000000E+00  0.00000000E+00  0.00000000E+00
  0.00000000E+00  0.00000000E+00  0.00000000E+00
  0.00000000E+00  0.00000000E+00  0.00000000E+00
  0.00000000E+00  0.00000000E+00  0.00000000E+00
  0.00000000E+00  0.00000000E+00  0.00000000E+00
  0.00000000E+00  0.00000000E+00  0.00000000E+00
  0.00000000E+00  0.00000000E+00  0.00000000E+00
  0.00000000E+00  0.00000000E+00  0.00000000E+00
  0.00000000E+00  0.00000000E+00  0.00000000E+00
  0.00000000E+00  0.00000000E+00  0.00000000E+00
  0.00000000E+00  0.00000000E+00  0.00000000E+00
  0.00000000E+00  0.00000000E+00  0.00000000E+00
  0.00000000E+00  0.00000000E+00  0.00000000E+00
  0.00000000E+00  0.00000000E+00  0.00000000E+00
  0.00000000E+00  0.00000000E+00  0.00000000E+00
  0.00000000E+00  0.00000000E+00  0.00000000E+00
  0.00000000E+00  0.00000000E+00  0.00000000E+00
  0.00000000E+00  0.00000000E+00  0.00000000E+00
  0.00000000E+00  0.00000000E+00  0.00000000E+00
  0.00000000E+00  0.00000000E+00  0.00000000E+00
  0.00000000E+00  0.00000000E+00  0.00000000E+00
  0.00000000E+00  0.00000000E+00  0.00000000E+00
  0.00000000E+00  0.00000000E+00  0.00000000E+00
  0.00000000E+00  0.00000000E+00  0.00000000E+00
  0.00000000E+00  0.00000000E+00  0.00000000E+00
  0.00000000E+00  0.00000000E+00  0.00000000E+00
  0.00000000E+00  0.00000000E+00  0.00000000E+00
  0.00000000E+00  0.00000000E+00  0.00000000E+00
  0.00000000E+00  0.00000000E+00  0.00000000E+00
  0.00000000E+00  0.00000000E+00  0.00000000E+00
  0.00000000E+00  0.00000000E+00  0.00000000E+00
  0.00000000E+00  0.00000000E+00  0.00000000E+00
  0.00000000E+00  0.00000000E+00  0.00000000E+00
  0.00000000E+00  0.00000000E+00  0.00000000E+00
  0.00000000E+00  0.00000000E+00  0.00000000E+00
  0.00000000E+00  0.00000000E+00  0.00000000E+00
  0.00000000E+00  0.00000000E+00  0.00000000E+00
  0.00000000E+00  0.00000000E+00  0.00000000E+00
  0.00000000E+00  0.00000000E+00  0.00000000E+00
  0.00000000E+00  0.00000000E+00  0.00000000E+00
  0.00000000E+00  0.00000000E+00  0.00000000E+00
  0.00000000E+00  0.00000000E+00  0.00000000E+00
  0.00000000E+00  0.00000000E+00  0.00000000E+00
  0.00000000E+00  0.00000000E+00  0.00000000E+00
  0.00000000E+00  0.00000000E+00  0.00000000E+00
  0.00000000E+00  0.00000000E+00  0.00000000E+00
  0.00000000E+00  0.00000000E+00  0.00000000E+00
  0.00000000E+00  0.00000000E+00  0.00000000E+00
  0.00000000E+00  0.00000000E+00  0.00000000E+00
  0.00000000E+00  0.00000000E+00  0.00000000E+00
  0.00000000E+00  0.00000000E+00  0.00000000E+00
  0.00000000E+00  0.00000000E+00  0.00000000E+00
  0.00000000E+00  0.00000000E+00  0.00000000E+00
  0.00000000E+00  0.00000000E+00  0.00000000E+00
  0.00000000E+00  0.00000000E+00  0.00000000E+00
  0.00000000E+00  0.00000000E+00  0.00000000E+00
  0.00000000E+00  0.00000000E+00  0.00000000E+00
  0.00000000E+00  0.00000000E+00  0.00000000E+00
  0.00000000E+00  0.00000000E+00  0.00000000E+00
  0.00000000E+00  0.00000000E+00  0.00000000E+00
  0.00000000E+00  0.00000000E+00  0.00000000E+00
  0.00000000E+00  0.00000000E+00  0.00000000E+00
  0.00000000E+00  0.00000000E+00  0.00000000E+00
  0.00000000E+00  0.00000000E+00  0.00000000E+00
  0.00000000E+00  0.00000000E+00  0.00000000E+00
  0.00000000E+00  0.00000000E+00  0.00000000E+00
  0.00000000E+00  0.00000000E+00  0.00000000E+00
  0.00000000E+00  0.00000000E+00  0.00000000E+00
  0.00000000E+00  0.00000000E+00  0.00000000E+00
  0.00000000E+00  0.00000000E+00  0.00000000E+00
  0.00000000E+00  0.00000000E+00  0.00000000E+00
