 C  O Mg  O                             
   1.0000000000000000     
     8.3491118265846538    0.0000000000000000    0.0000000000000000
     0.0000000000000000    8.3491118265846538    0.0000000000000000
     0.0000000000000000    0.0000000000000000   21.2618338699384921
   C    O    Mg   O 
     1     1    32    32
Selective dynamics
Direct
  0.5000000000000000  0.5000000000000000  0.7656660810538305   T   T   T
  0.5000000000000000  0.5000000000000000  0.8188006103739115   T   T   T
  0.2500000000000000  0.0000000000000000  0.3527447371604211   F   F   F
  0.5000000000000000  0.2500000000000000  0.3527447371604211   F   F   F
  0.2500000000000000  0.2500000000000000  0.4509149123868070   F   F   F
  0.5000000000000000  0.0000000000000000  0.4509149123868070   F   F   F
  0.2500938495699158  0.0000000000000000  0.5496253105885875   T   T   T
  0.5000000000000000  0.2504183835104741  0.5498555149932342   T   T   T
  0.2498106711883624  0.2498106711883624  0.6470670360080311   T   T   T
  0.5000000000000000  0.0000000000000000  0.6471526406325214   T   T   T
  0.2500000000000000  0.5000000000000000  0.3527447371604211   F   F   F
  0.5000000000000000  0.7500000000000000  0.3527447371604211   F   F   F
  0.2500000000000000  0.7500000000000000  0.4509149123868070   F   F   F
  0.5000000000000000  0.5000000000000000  0.4509149123868070   F   F   F
  0.2504183835104741  0.5000000000000000  0.5498555149932342   T   T   T
  0.5000000000000000  0.7495816164895260  0.5498555149932342   T   T   T
  0.2498106711883624  0.7501893288116376  0.6470670360080311   T   T   T
  0.5000000000000000  0.5000000000000000  0.6494289661439385   T   T   T
  0.7500000000000000  0.0000000000000000  0.3527447371604211   F   F   F
  0.0000000000000000  0.2500000000000000  0.3527447371604211   F   F   F
  0.7500000000000000  0.2500000000000000  0.4509149123868070   F   F   F
  0.0000000000000000  0.0000000000000000  0.4509149123868070   F   F   F
  0.7499061504300841  0.0000000000000000  0.5496253105885875   T   T   T
  0.0000000000000000  0.2500938495699158  0.5496253105885875   T   T   T
  0.7501893288116376  0.2498106711883624  0.6470670360080311   T   T   T
  0.0000000000000000  0.0000000000000000  0.6472078546711383   T   T   T
  0.7500000000000000  0.5000000000000000  0.3527447371604211   F   F   F
  0.0000000000000000  0.7500000000000000  0.3527447371604211   F   F   F
  0.7500000000000000  0.7500000000000000  0.4509149123868070   F   F   F
  0.0000000000000000  0.5000000000000000  0.4509149123868070   F   F   F
  0.7495816164895260  0.5000000000000000  0.5498555149932342   T   T   T
  0.0000000000000000  0.7499061504300841  0.5496253105885875   T   T   T
  0.7501893288116376  0.7501893288116376  0.6470670360080311   T   T   T
  0.0000000000000000  0.5000000000000000  0.6471526406325214   T   T   T
  0.2500000000000000  0.0000000000000000  0.4509149123868070   F   F   F
  0.5000000000000000  0.2500000000000000  0.4509149123868070   F   F   F
  0.2500000000000000  0.2500000000000000  0.3527447371604211   F   F   F
  0.5000000000000000  0.0000000000000000  0.3527447371604211   F   F   F
  0.2497676337036681  0.0000000000000000  0.6495493807288285   T   T   T
  0.5000000000000000  0.2488096708192848  0.6496029284035012   T   T   T
  0.2499730884713712  0.2499730884713712  0.5494005328071644   T   T   T
  0.5000000000000000  0.0000000000000000  0.5493337210553561   T   T   T
  0.2500000000000000  0.5000000000000000  0.4509149123868070   F   F   F
  0.5000000000000000  0.7500000000000000  0.4509149123868070   F   F   F
  0.2500000000000000  0.7500000000000000  0.3527447371604211   F   F   F
  0.5000000000000000  0.5000000000000000  0.3527447371604211   F   F   F
  0.2488096708192848  0.5000000000000000  0.6496029284035012   T   T   T
  0.5000000000000000  0.7511903291807152  0.6496029284035012   T   T   T
  0.2499730884713712  0.7500269115286288  0.5494005328071644   T   T   T
  0.5000000000000000  0.5000000000000000  0.5498390353918187   T   T   T
  0.7500000000000000  0.0000000000000000  0.4509149123868070   F   F   F
  0.0000000000000000  0.2500000000000000  0.4509149123868070   F   F   F
  0.7500000000000000  0.2500000000000000  0.3527447371604211   F   F   F
  0.0000000000000000  0.0000000000000000  0.3527447371604211   F   F   F
  0.7502323662963318  0.0000000000000000  0.6495493807288285   T   T   T
  0.0000000000000000  0.2497676337036681  0.6495493807288285   T   T   T
  0.7500269115286288  0.2499730884713712  0.5494005328071644   T   T   T
  0.0000000000000000  0.0000000000000000  0.5493493969583892   T   T   T
  0.7500000000000000  0.5000000000000000  0.4509149123868070   F   F   F
  0.0000000000000000  0.7500000000000000  0.4509149123868070   F   F   F
  0.7500000000000000  0.7500000000000000  0.3527447371604211   F   F   F
  0.0000000000000000  0.5000000000000000  0.3527447371604211   F   F   F
  0.7511903291807152  0.5000000000000000  0.6496029284035012   T   T   T
  0.0000000000000000  0.7502323662963318  0.6495493807288285   T   T   T
  0.7500269115286288  0.7500269115286288  0.5494005328071644   T   T   T
  0.0000000000000000  0.5000000000000000  0.5493337210553561   T   T   T

  0.00000000E+00  0.00000000E+00  0.00000000E+00
  0.00000000E+00  0.00000000E+00  0.00000000E+00
  0.00000000E+00  0.00000000E+00  0.00000000E+00
  0.00000000E+00  0.00000000E+00  0.00000000E+00
  0.00000000E+00  0.00000000E+00  0.00000000E+00
  0.00000000E+00  0.00000000E+00  0.00000000E+00
  0.00000000E+00  0.00000000E+00  0.00000000E+00
  0.00000000E+00  0.00000000E+00  0.00000000E+00
  0.00000000E+00  0.00000000E+00  0.00000000E+00
  0.00000000E+00  0.00000000E+00  0.00000000E+00
  0.00000000E+00  0.00000000E+00  0.00000000E+00
  0.00000000E+00  0.00000000E+00  0.00000000E+00
  0.00000000E+00  0.00000000E+00  0.00000000E+00
  0.00000000E+00  0.00000000E+00  0.00000000E+00
  0.00000000E+00  0.00000000E+00  0.00000000E+00
  0.00000000E+00  0.00000000E+00  0.00000000E+00
  0.00000000E+00  0.00000000E+00  0.00000000E+00
  0.00000000E+00  0.00000000E+00  0.00000000E+00
  0.00000000E+00  0.00000000E+00  0.00000000E+00
  0.00000000E+00  0.00000000E+00  0.00000000E+00
  0.00000000E+00  0.00000000E+00  0.00000000E+00
  0.00000000E+00  0.00000000E+00  0.00000000E+00
  0.00000000E+00  0.00000000E+00  0.00000000E+00
  0.00000000E+00  0.00000000E+00  0.00000000E+00
  0.00000000E+00  0.00000000E+00  0.00000000E+00
  0.00000000E+00  0.00000000E+00  0.00000000E+00
  0.00000000E+00  0.00000000E+00  0.00000000E+00
  0.00000000E+00  0.00000000E+00  0.00000000E+00
  0.00000000E+00  0.00000000E+00  0.00000000E+00
  0.00000000E+00  0.00000000E+00  0.00000000E+00
  0.00000000E+00  0.00000000E+00  0.00000000E+00
  0.00000000E+00  0.00000000E+00  0.00000000E+00
  0.00000000E+00  0.00000000E+00  0.00000000E+00
  0.00000000E+00  0.00000000E+00  0.00000000E+00
  0.00000000E+00  0.00000000E+00  0.00000000E+00
  0.00000000E+00  0.00000000E+00  0.00000000E+00
  0.00000000E+00  0.00000000E+00  0.00000000E+00
  0.00000000E+00  0.00000000E+00  0.00000000E+00
  0.00000000E+00  0.00000000E+00  0.00000000E+00
  0.00000000E+00  0.00000000E+00  0.00000000E+00
  0.00000000E+00  0.00000000E+00  0.00000000E+00
  0.00000000E+00  0.00000000E+00  0.00000000E+00
  0.00000000E+00  0.00000000E+00  0.00000000E+00
  0.00000000E+00  0.00000000E+00  0.00000000E+00
  0.00000000E+00  0.00000000E+00  0.00000000E+00
  0.00000000E+00  0.00000000E+00  0.00000000E+00
  0.00000000E+00  0.00000000E+00  0.00000000E+00
  0.00000000E+00  0.00000000E+00  0.00000000E+00
  0.00000000E+00  0.00000000E+00  0.00000000E+00
  0.00000000E+00  0.00000000E+00  0.00000000E+00
  0.00000000E+00  0.00000000E+00  0.00000000E+00
  0.00000000E+00  0.00000000E+00  0.00000000E+00
  0.00000000E+00  0.00000000E+00  0.00000000E+00
  0.00000000E+00  0.00000000E+00  0.00000000E+00
  0.00000000E+00  0.00000000E+00  0.00000000E+00
  0.00000000E+00  0.00000000E+00  0.00000000E+00
  0.00000000E+00  0.00000000E+00  0.00000000E+00
  0.00000000E+00  0.00000000E+00  0.00000000E+00
  0.00000000E+00  0.00000000E+00  0.00000000E+00
  0.00000000E+00  0.00000000E+00  0.00000000E+00
  0.00000000E+00  0.00000000E+00  0.00000000E+00
  0.00000000E+00  0.00000000E+00  0.00000000E+00
  0.00000000E+00  0.00000000E+00  0.00000000E+00
  0.00000000E+00  0.00000000E+00  0.00000000E+00
  0.00000000E+00  0.00000000E+00  0.00000000E+00
  0.00000000E+00  0.00000000E+00  0.00000000E+00
