 C  O Mg  O                             
   1.0000000000000000     
     8.3491118265846538    0.0000000000000000    0.0000000000000000
     0.0000000000000000    8.3491118265846538    0.0000000000000000
     0.0000000000000000    0.0000000000000000   21.2618338699384921
   C    O    Mg   O 
     1     1    32    32
Selective dynamics
Direct
  0.5000000000000000  0.5000000000000000  0.7656240850851650   T   T   T
  0.5000000000000000  0.5000000000000000  0.8187485594974668   T   T   T
  0.2500000000000000  0.0000000000000000  0.3527447371604211   F   F   F
  0.5000000000000000  0.2500000000000000  0.3527447371604211   F   F   F
  0.2500000000000000  0.2500000000000000  0.4509149123868070   F   F   F
  0.5000000000000000  0.0000000000000000  0.4509149123868070   F   F   F
  0.2501230119435091 -0.0000000000000000  0.5496240330336862   T   T   T
  0.5000000000000000  0.2504502112467991  0.5498531224877270   T   T   T
  0.2498585427991604  0.2498585427991604  0.6470836809967100   T   T   T
  0.5000000000000000 -0.0000000000000000  0.6471714958263339   T   T   T
  0.2500000000000000  0.5000000000000000  0.3527447371604211   F   F   F
  0.5000000000000000  0.7500000000000000  0.3527447371604211   F   F   F
  0.2500000000000000  0.7500000000000000  0.4509149123868070   F   F   F
  0.5000000000000000  0.5000000000000000  0.4509149123868070   F   F   F
  0.2504502112467991  0.5000000000000000  0.5498531224877270   T   T   T
  0.5000000000000000  0.7495497887532011  0.5498531224877270   T   T   T
  0.2498585427991604  0.7501414572008399  0.6470836809967100   T   T   T
  0.5000000000000000  0.5000000000000000  0.6493844620170978   T   T   T
  0.7500000000000000  0.0000000000000000  0.3527447371604211   F   F   F
  0.0000000000000000  0.2500000000000000  0.3527447371604211   F   F   F
  0.7500000000000000  0.2500000000000000  0.4509149123868070   F   F   F
  0.0000000000000000  0.0000000000000000  0.4509149123868070   F   F   F
  0.7498769880564905 -0.0000000000000000  0.5496240330336862   T   T   T
  0.0000000000000000  0.2501230119435091  0.5496240330336862   T   T   T
  0.7501414572008399  0.2498585427991604  0.6470836809967100   T   T   T
  0.0000000000000000 -0.0000000000000000  0.6471060537035677   T   T   T
  0.7500000000000000  0.5000000000000000  0.3527447371604211   F   F   F
  0.0000000000000000  0.7500000000000000  0.3527447371604211   F   F   F
  0.7500000000000000  0.7500000000000000  0.4509149123868070   F   F   F
  0.0000000000000000  0.5000000000000000  0.4509149123868070   F   F   F
  0.7495497887532011  0.5000000000000000  0.5498531224877270   T   T   T
  0.0000000000000000  0.7498769880564905  0.5496240330336862   T   T   T
  0.7501414572008399  0.7501414572008399  0.6470836809967100   T   T   T
  0.0000000000000000  0.5000000000000000  0.6471714958263339   T   T   T
  0.2500000000000000  0.0000000000000000  0.4509149123868070   F   F   F
  0.5000000000000000  0.2500000000000000  0.4509149123868070   F   F   F
  0.2500000000000000  0.2500000000000000  0.3527447371604211   F   F   F
  0.5000000000000000  0.0000000000000000  0.3527447371604211   F   F   F
  0.2497686555031647 -0.0000000000000000  0.6495238139133532   T   T   T
  0.5000000000000000  0.2488084797058378  0.6496157647020914   T   T   T
  0.2499870196995094  0.2499870196995094  0.5494107877526717   T   T   T
  0.5000000000000000 -0.0000000000000000  0.5493249515031065   T   T   T
  0.2500000000000000  0.5000000000000000  0.4509149123868070   F   F   F
  0.5000000000000000  0.7500000000000000  0.4509149123868070   F   F   F
  0.2500000000000000  0.7500000000000000  0.3527447371604211   F   F   F
  0.5000000000000000  0.5000000000000000  0.3527447371604211   F   F   F
  0.2488084797058378  0.5000000000000000  0.6496157647020914   T   T   T
  0.5000000000000000  0.7511915202941624  0.6496157647020914   T   T   T
  0.2499870196995094  0.7500129803004906  0.5494107877526717   T   T   T
  0.5000000000000000  0.5000000000000000  0.5498246870883526   T   T   T
  0.7500000000000000  0.0000000000000000  0.4509149123868070   F   F   F
  0.0000000000000000  0.2500000000000000  0.4509149123868070   F   F   F
  0.7500000000000000  0.2500000000000000  0.3527447371604211   F   F   F
  0.0000000000000000  0.0000000000000000  0.3527447371604211   F   F   F
  0.7502313444968349 -0.0000000000000000  0.6495238139133532   T   T   T
  0.0000000000000000  0.2497686555031647  0.6495238139133532   T   T   T
  0.7500129803004906  0.2499870196995094  0.5494107877526717   T   T   T
  0.0000000000000000 -0.0000000000000000  0.5493218185965237   T   T   T
  0.7500000000000000  0.5000000000000000  0.4509149123868070   F   F   F
  0.0000000000000000  0.7500000000000000  0.4509149123868070   F   F   F
  0.7500000000000000  0.7500000000000000  0.3527447371604211   F   F   F
  0.0000000000000000  0.5000000000000000  0.3527447371604211   F   F   F
  0.7511915202941624  0.5000000000000000  0.6496157647020914   T   T   T
  0.0000000000000000  0.7502313444968349  0.6495238139133532   T   T   T
  0.7500129803004906  0.7500129803004906  0.5494107877526717   T   T   T
  0.0000000000000000  0.5000000000000000  0.5493249515031065   T   T   T

  0.00000000E+00  0.00000000E+00  0.00000000E+00
  0.00000000E+00  0.00000000E+00  0.00000000E+00
  0.00000000E+00  0.00000000E+00  0.00000000E+00
  0.00000000E+00  0.00000000E+00  0.00000000E+00
  0.00000000E+00  0.00000000E+00  0.00000000E+00
  0.00000000E+00  0.00000000E+00  0.00000000E+00
  0.00000000E+00  0.00000000E+00  0.00000000E+00
  0.00000000E+00  0.00000000E+00  0.00000000E+00
  0.00000000E+00  0.00000000E+00  0.00000000E+00
  0.00000000E+00  0.00000000E+00  0.00000000E+00
  0.00000000E+00  0.00000000E+00  0.00000000E+00
  0.00000000E+00  0.00000000E+00  0.00000000E+00
  0.00000000E+00  0.00000000E+00  0.00000000E+00
  0.00000000E+00  0.00000000E+00  0.00000000E+00
  0.00000000E+00  0.00000000E+00  0.00000000E+00
  0.00000000E+00  0.00000000E+00  0.00000000E+00
  0.00000000E+00  0.00000000E+00  0.00000000E+00
  0.00000000E+00  0.00000000E+00  0.00000000E+00
  0.00000000E+00  0.00000000E+00  0.00000000E+00
  0.00000000E+00  0.00000000E+00  0.00000000E+00
  0.00000000E+00  0.00000000E+00  0.00000000E+00
  0.00000000E+00  0.00000000E+00  0.00000000E+00
  0.00000000E+00  0.00000000E+00  0.00000000E+00
  0.00000000E+00  0.00000000E+00  0.00000000E+00
  0.00000000E+00  0.00000000E+00  0.00000000E+00
  0.00000000E+00  0.00000000E+00  0.00000000E+00
  0.00000000E+00  0.00000000E+00  0.00000000E+00
  0.00000000E+00  0.00000000E+00  0.00000000E+00
  0.00000000E+00  0.00000000E+00  0.00000000E+00
  0.00000000E+00  0.00000000E+00  0.00000000E+00
  0.00000000E+00  0.00000000E+00  0.00000000E+00
  0.00000000E+00  0.00000000E+00  0.00000000E+00
  0.00000000E+00  0.00000000E+00  0.00000000E+00
  0.00000000E+00  0.00000000E+00  0.00000000E+00
  0.00000000E+00  0.00000000E+00  0.00000000E+00
  0.00000000E+00  0.00000000E+00  0.00000000E+00
  0.00000000E+00  0.00000000E+00  0.00000000E+00
  0.00000000E+00  0.00000000E+00  0.00000000E+00
  0.00000000E+00  0.00000000E+00  0.00000000E+00
  0.00000000E+00  0.00000000E+00  0.00000000E+00
  0.00000000E+00  0.00000000E+00  0.00000000E+00
  0.00000000E+00  0.00000000E+00  0.00000000E+00
  0.00000000E+00  0.00000000E+00  0.00000000E+00
  0.00000000E+00  0.00000000E+00  0.00000000E+00
  0.00000000E+00  0.00000000E+00  0.00000000E+00
  0.00000000E+00  0.00000000E+00  0.00000000E+00
  0.00000000E+00  0.00000000E+00  0.00000000E+00
  0.00000000E+00  0.00000000E+00  0.00000000E+00
  0.00000000E+00  0.00000000E+00  0.00000000E+00
  0.00000000E+00  0.00000000E+00  0.00000000E+00
  0.00000000E+00  0.00000000E+00  0.00000000E+00
  0.00000000E+00  0.00000000E+00  0.00000000E+00
  0.00000000E+00  0.00000000E+00  0.00000000E+00
  0.00000000E+00  0.00000000E+00  0.00000000E+00
  0.00000000E+00  0.00000000E+00  0.00000000E+00
  0.00000000E+00  0.00000000E+00  0.00000000E+00
  0.00000000E+00  0.00000000E+00  0.00000000E+00
  0.00000000E+00  0.00000000E+00  0.00000000E+00
  0.00000000E+00  0.00000000E+00  0.00000000E+00
  0.00000000E+00  0.00000000E+00  0.00000000E+00
  0.00000000E+00  0.00000000E+00  0.00000000E+00
  0.00000000E+00  0.00000000E+00  0.00000000E+00
  0.00000000E+00  0.00000000E+00  0.00000000E+00
  0.00000000E+00  0.00000000E+00  0.00000000E+00
  0.00000000E+00  0.00000000E+00  0.00000000E+00
  0.00000000E+00  0.00000000E+00  0.00000000E+00
