 C  O Mg  O                             
   1.00000000000000     
     8.4409846541513982    0.0000000000000000    0.0000000000000000
     0.0000000000000000    8.4409846541513982    0.0000000000000000
     0.0000000000000000    0.0000000000000000   25.9659824075199559
   C    O    Mg   O 
     1     1    32    32
Direct
  0.5000000000000000  0.5000000000000000  0.7440181653695248
  0.5000000000000000  0.5000000000000000  0.7881844055163825
  0.0000000000000000  0.7500000000000000  0.2118155944836175
  0.2500000000000000  0.0000000000000000  0.2118155944836175
  0.0000000000000000  0.0000000000000000  0.2930852391448013
  0.2500000000000000  0.7500000000000000  0.2930852391448013
  0.0000000000000000  0.7499392679099373  0.3748628327964525
  0.2500607320900627  0.0000000000000000  0.3748628327964525
  0.0000000000000000  0.0000000000000000  0.4559125224139180
  0.2498583271629329  0.7501416728370671  0.4557681360537842
  0.0000000000000000  0.2500000000000000  0.2118155944836175
  0.2500000000000000  0.5000000000000000  0.2118155944836175
  0.0000000000000000  0.5000000000000000  0.2930852391448013
  0.2500000000000000  0.2500000000000000  0.2930852391448013
  0.0000000000000000  0.2500607320900627  0.3748628327964525
  0.2503783790197005  0.5000000000000000  0.3749747889952317
  0.0000000000000000  0.5000000000000000  0.4558057054161395
  0.2498583271629329  0.2498583271629329  0.4557681360537842
  0.5000000000000000  0.7500000000000000  0.2118155944836175
  0.7500000000000000  0.0000000000000000  0.2118155944836175
  0.5000000000000000  0.0000000000000000  0.2930852391448013
  0.7500000000000000  0.7500000000000000  0.2930852391448013
  0.5000000000000000  0.7496216209802995  0.3749747889952317
  0.7499392679099373  0.0000000000000000  0.3748628327964525
  0.5000000000000000  0.0000000000000000  0.4558057054161395
  0.7501416728370671  0.7501416728370671  0.4557681360537842
  0.5000000000000000  0.2500000000000000  0.2118155944836175
  0.7500000000000000  0.5000000000000000  0.2118155944836175
  0.5000000000000000  0.5000000000000000  0.2930852391448013
  0.7500000000000000  0.2500000000000000  0.2930852391448013
  0.5000000000000000  0.2503783790197005  0.3749747889952317
  0.7496216209802995  0.5000000000000000  0.3749747889952317
  0.5000000000000000  0.5000000000000000  0.4574500609325085
  0.7501416728370671  0.2498583271629329  0.4557681360537842
  0.0000000000000000  0.7500000000000000  0.2930852391448013
  0.2500000000000000  0.0000000000000000  0.2930852391448013
  0.0000000000000000  0.0000000000000000  0.2118155944836175
  0.2500000000000000  0.7500000000000000  0.2118155944836175
  0.0000000000000000  0.7502185328875299  0.4577476818867723
  0.2497814671124701  0.0000000000000000  0.4577476818867723
  0.0000000000000000  0.0000000000000000  0.3746382802300658
  0.2499457704965096  0.7500542295034904  0.3746787160483507
  0.0000000000000000  0.2500000000000000  0.2930852391448013
  0.2500000000000000  0.5000000000000000  0.2930852391448013
  0.0000000000000000  0.5000000000000000  0.2118155944836175
  0.2500000000000000  0.2500000000000000  0.2118155944836175
  0.0000000000000000  0.2497814671124701  0.4577476818867723
  0.2488227096466176  0.5000000000000000  0.4576685040164605
  0.0000000000000000  0.5000000000000000  0.3745994855512080
  0.2499457704965096  0.2499457704965096  0.3746787160483507
  0.5000000000000000  0.7500000000000000  0.2930852391448013
  0.7500000000000000  0.0000000000000000  0.2930852391448013
  0.5000000000000000  0.0000000000000000  0.2118155944836175
  0.7500000000000000  0.7500000000000000  0.2118155944836175
  0.5000000000000000  0.7511772903533824  0.4576685040164605
  0.7502185328875299  0.0000000000000000  0.4577476818867723
  0.5000000000000000  0.0000000000000000  0.3745994855512080
  0.7500542295034904  0.7500542295034904  0.3746787160483507
  0.5000000000000000  0.2500000000000000  0.2930852391448013
  0.7500000000000000  0.5000000000000000  0.2930852391448013
  0.5000000000000000  0.5000000000000000  0.2118155944836175
  0.7500000000000000  0.2500000000000000  0.2118155944836175
  0.5000000000000000  0.2488227096466176  0.4576685040164605
  0.7511772903533824  0.5000000000000000  0.4576685040164605
  0.5000000000000000  0.5000000000000000  0.3749845097211093
  0.7500542295034904  0.2499457704965096  0.3746787160483507
 
  0.00000000E+00  0.00000000E+00  0.00000000E+00
  0.00000000E+00  0.00000000E+00  0.00000000E+00
  0.00000000E+00  0.00000000E+00  0.00000000E+00
  0.00000000E+00  0.00000000E+00  0.00000000E+00
  0.00000000E+00  0.00000000E+00  0.00000000E+00
  0.00000000E+00  0.00000000E+00  0.00000000E+00
  0.00000000E+00  0.00000000E+00  0.00000000E+00
  0.00000000E+00  0.00000000E+00  0.00000000E+00
  0.00000000E+00  0.00000000E+00  0.00000000E+00
  0.00000000E+00  0.00000000E+00  0.00000000E+00
  0.00000000E+00  0.00000000E+00  0.00000000E+00
  0.00000000E+00  0.00000000E+00  0.00000000E+00
  0.00000000E+00  0.00000000E+00  0.00000000E+00
  0.00000000E+00  0.00000000E+00  0.00000000E+00
  0.00000000E+00  0.00000000E+00  0.00000000E+00
  0.00000000E+00  0.00000000E+00  0.00000000E+00
  0.00000000E+00  0.00000000E+00  0.00000000E+00
  0.00000000E+00  0.00000000E+00  0.00000000E+00
  0.00000000E+00  0.00000000E+00  0.00000000E+00
  0.00000000E+00  0.00000000E+00  0.00000000E+00
  0.00000000E+00  0.00000000E+00  0.00000000E+00
  0.00000000E+00  0.00000000E+00  0.00000000E+00
  0.00000000E+00  0.00000000E+00  0.00000000E+00
  0.00000000E+00  0.00000000E+00  0.00000000E+00
  0.00000000E+00  0.00000000E+00  0.00000000E+00
  0.00000000E+00  0.00000000E+00  0.00000000E+00
  0.00000000E+00  0.00000000E+00  0.00000000E+00
  0.00000000E+00  0.00000000E+00  0.00000000E+00
  0.00000000E+00  0.00000000E+00  0.00000000E+00
  0.00000000E+00  0.00000000E+00  0.00000000E+00
  0.00000000E+00  0.00000000E+00  0.00000000E+00
  0.00000000E+00  0.00000000E+00  0.00000000E+00
  0.00000000E+00  0.00000000E+00  0.00000000E+00
  0.00000000E+00  0.00000000E+00  0.00000000E+00
  0.00000000E+00  0.00000000E+00  0.00000000E+00
  0.00000000E+00  0.00000000E+00  0.00000000E+00
  0.00000000E+00  0.00000000E+00  0.00000000E+00
  0.00000000E+00  0.00000000E+00  0.00000000E+00
  0.00000000E+00  0.00000000E+00  0.00000000E+00
  0.00000000E+00  0.00000000E+00  0.00000000E+00
  0.00000000E+00  0.00000000E+00  0.00000000E+00
  0.00000000E+00  0.00000000E+00  0.00000000E+00
  0.00000000E+00  0.00000000E+00  0.00000000E+00
  0.00000000E+00  0.00000000E+00  0.00000000E+00
  0.00000000E+00  0.00000000E+00  0.00000000E+00
  0.00000000E+00  0.00000000E+00  0.00000000E+00
  0.00000000E+00  0.00000000E+00  0.00000000E+00
  0.00000000E+00  0.00000000E+00  0.00000000E+00
  0.00000000E+00  0.00000000E+00  0.00000000E+00
  0.00000000E+00  0.00000000E+00  0.00000000E+00
  0.00000000E+00  0.00000000E+00  0.00000000E+00
  0.00000000E+00  0.00000000E+00  0.00000000E+00
  0.00000000E+00  0.00000000E+00  0.00000000E+00
  0.00000000E+00  0.00000000E+00  0.00000000E+00
  0.00000000E+00  0.00000000E+00  0.00000000E+00
  0.00000000E+00  0.00000000E+00  0.00000000E+00
  0.00000000E+00  0.00000000E+00  0.00000000E+00
  0.00000000E+00  0.00000000E+00  0.00000000E+00
  0.00000000E+00  0.00000000E+00  0.00000000E+00
  0.00000000E+00  0.00000000E+00  0.00000000E+00
  0.00000000E+00  0.00000000E+00  0.00000000E+00
  0.00000000E+00  0.00000000E+00  0.00000000E+00
  0.00000000E+00  0.00000000E+00  0.00000000E+00
  0.00000000E+00  0.00000000E+00  0.00000000E+00
  0.00000000E+00  0.00000000E+00  0.00000000E+00
  0.00000000E+00  0.00000000E+00  0.00000000E+00
