 C  O Mg  O 
 1.0000000000000000
     8.4409846541513982    0.0000000000000000    0.0000000000000000
     0.0000000000000000    8.4409846541513982    0.0000000000000000
     0.0000000000000000    0.0000000000000000   25.9659824075199559
   C   O  Mg   O
   1   1  32  32
Direct
  0.5000000000000000  0.5000000000000000  0.7440181653695257
  0.5000000000000000  0.5000000000000000  0.7881844055163822
  0.0000000000000000  0.7500000000000000  0.2118155944836178
  0.2500000000000000  0.0000000000000000  0.2118155944836178
  0.0000000000000000  0.0000000000000000  0.2930852391448041
  0.2500000000000000  0.7500000000000000  0.2930852391448041
  0.0000000000000000  0.7499392679099361  0.3748628327964504
  0.2500607320900638  0.0000000000000000  0.3748628327964504
  0.0000000000000000  0.0000000000000000  0.4559125224139210
  0.2498583271629312  0.7501416728370690  0.4557681360537868
  0.0000000000000000  0.2500000000000000  0.2118155944836178
  0.2500000000000000  0.5000000000000000  0.2118155944836178
  0.0000000000000000  0.5000000000000000  0.2930852391448041
  0.2500000000000000  0.2500000000000000  0.2930852391448041
  0.0000000000000000  0.2500607320900638  0.3748628327964504
  0.2503783790197028  0.5000000000000000  0.3749747889952331
  0.0000000000000000  0.5000000000000000  0.4558057054161398
  0.2498583271629312  0.2498583271629312  0.4557681360537868
  0.5000000000000000  0.7500000000000000  0.2118155944836178
  0.7500000000000000  0.0000000000000000  0.2118155944836178
  0.5000000000000000  0.0000000000000000  0.2930852391448041
  0.7500000000000000  0.7500000000000000  0.2930852391448041
  0.5000000000000000  0.7496216209802971  0.3749747889952331
  0.7499392679099361  0.0000000000000000  0.3748628327964504
  0.5000000000000000  0.0000000000000000  0.4558057054161398
  0.7501416728370690  0.7501416728370690  0.4557681360537868
  0.5000000000000000  0.2500000000000000  0.2118155944836178
  0.7500000000000000  0.5000000000000000  0.2118155944836178
  0.5000000000000000  0.5000000000000000  0.2930852391448041
  0.7500000000000000  0.2500000000000000  0.2930852391448041
  0.5000000000000000  0.2503783790197028  0.3749747889952331
  0.7496216209802971  0.5000000000000000  0.3749747889952331
  0.5000000000000000  0.5000000000000000  0.4574500609325103
  0.7501416728370690  0.2498583271629312  0.4557681360537868
  0.0000000000000000  0.7500000000000000  0.2930852391448041
  0.2500000000000000  0.0000000000000000  0.2930852391448041
  0.0000000000000000  0.0000000000000000  0.2118155944836178
  0.2500000000000000  0.7500000000000000  0.2118155944836178
  0.0000000000000000  0.7502185328875304  0.4577476818867725
  0.2497814671124697  0.0000000000000000  0.4577476818867725
  0.0000000000000000  0.0000000000000000  0.3746382802300637
  0.2499457704965093  0.7500542295034907  0.3746787160483478
  0.0000000000000000  0.2500000000000000  0.2930852391448041
  0.2500000000000000  0.5000000000000000  0.2930852391448041
  0.0000000000000000  0.5000000000000000  0.2118155944836178
  0.2500000000000000  0.2500000000000000  0.2118155944836178
  0.0000000000000000  0.2497814671124697  0.4577476818867725
  0.2488227096466181  0.5000000000000000  0.4576685040164589
  0.0000000000000000  0.5000000000000000  0.3745994855512059
  0.2499457704965093  0.2499457704965093  0.3746787160483478
  0.5000000000000000  0.7500000000000000  0.2930852391448041
  0.7500000000000000  0.0000000000000000  0.2930852391448041
  0.5000000000000000  0.0000000000000000  0.2118155944836178
  0.7500000000000000  0.7500000000000000  0.2118155944836178
  0.5000000000000000  0.7511772903533822  0.4576685040164589
  0.7502185328875304  0.0000000000000000  0.4577476818867725
  0.5000000000000000  0.0000000000000000  0.3745994855512059
  0.7500542295034907  0.7500542295034907  0.3746787160483478
  0.5000000000000000  0.2500000000000000  0.2930852391448041
  0.7500000000000000  0.5000000000000000  0.2930852391448041
  0.5000000000000000  0.5000000000000000  0.2118155944836178
  0.7500000000000000  0.2500000000000000  0.2118155944836178
  0.5000000000000000  0.2488227096466181  0.4576685040164589
  0.7511772903533822  0.5000000000000000  0.4576685040164589
  0.5000000000000000  0.5000000000000000  0.3749845097211124
  0.7500542295034907  0.2499457704965093  0.3746787160483478
