 C  O Mg  O                             
   1.0000000000000000     
     8.4405822620844617    0.0000000000000000    0.0000000000000000
     0.0000000000000000    8.4405822620844617    0.0000000000000000
     0.0000000000000000    0.0000000000000000   21.3304366965633463
   C    O    Mg   O 
     1     1    32    32
Selective dynamics
Direct
  0.5000000000000000  0.5000000000000000  0.7634960571823584   T   T   T
  0.5000000000000000  0.5000000000000000  0.8165562572087713   T   T   T
  0.2500000000000000  0.0000000000000000  0.3516102415853695   F   F   F
  0.5000000000000000  0.2500000000000000  0.3516102415853695   F   F   F
  0.2500000000000000  0.2500000000000000  0.4505367471951232   F   F   F
  0.5000000000000000  0.0000000000000000  0.4505367471951232   F   F   F
  0.2500960338364067  0.0000000000000000  0.5498039148639435   F   F   F
  0.5000000000000000  0.2504783001354340  0.5500376416068846   F   F   F
  0.2497084190012373  0.2497084190012373  0.6479484393233790   F   F   F
  0.5000000000000000  0.0000000000000000  0.6480586055400721   F   F   F
  0.2500000000000000  0.5000000000000000  0.3516102415853695   F   F   F
  0.5000000000000000  0.7500000000000000  0.3516102415853695   F   F   F
  0.2500000000000000  0.7500000000000000  0.4505367471951232   F   F   F
  0.5000000000000000  0.5000000000000000  0.4505367471951232   F   F   F
  0.2504783001354340  0.5000000000000000  0.5500376416068846   F   F   F
  0.5000000000000000  0.7495216998645660  0.5500376416068846   F   F   F
  0.2497084190012373  0.7502915809987627  0.6479484393233790   F   F   F
  0.5000000000000000  0.5000000000000000  0.6506453112574562   F   F   F
  0.7500000000000000  0.0000000000000000  0.3516102415853695   F   F   F
  0.0000000000000000  0.2500000000000000  0.3516102415853695   F   F   F
  0.7500000000000000  0.2500000000000000  0.4505367471951232   F   F   F
  0.0000000000000000  0.0000000000000000  0.4505367471951232   F   F   F
  0.7499039661635933  0.0000000000000000  0.5498039148639435   F   F   F
  0.0000000000000000  0.2500960338364067  0.5498039148639435   F   F   F
  0.7502915809987627  0.2497084190012373  0.6479484393233790   F   F   F
  0.0000000000000000  0.0000000000000000  0.6481203873623116   F   F   F
  0.7500000000000000  0.5000000000000000  0.3516102415853695   F   F   F
  0.0000000000000000  0.7500000000000000  0.3516102415853695   F   F   F
  0.7500000000000000  0.7500000000000000  0.4505367471951232   F   F   F
  0.0000000000000000  0.5000000000000000  0.4505367471951232   F   F   F
  0.7495216998645660  0.5000000000000000  0.5500376416068846   F   F   F
  0.0000000000000000  0.7499039661635933  0.5498039148639435   F   F   F
  0.7502915809987627  0.7502915809987627  0.6479484393233790   F   F   F
  0.0000000000000000  0.5000000000000000  0.6480586055400721   F   F   F
  0.2500000000000000  0.0000000000000000  0.4505367471951232   F   F   F
  0.5000000000000000  0.2500000000000000  0.4505367471951232   F   F   F
  0.2500000000000000  0.2500000000000000  0.3516102415853695   F   F   F
  0.5000000000000000  0.0000000000000000  0.3516102415853695   F   F   F
  0.2497306568648909  0.0000000000000000  0.6500549255985604   F   F   F
  0.5000000000000000  0.2487066704332577  0.6501301015209151   F   F   F
  0.2499824678868237  0.2499824678868237  0.5496245650511042   F   F   F
  0.5000000000000000  0.0000000000000000  0.5495477826614845   F   F   F
  0.2500000000000000  0.5000000000000000  0.4505367471951232   F   F   F
  0.5000000000000000  0.7500000000000000  0.4505367471951232   F   F   F
  0.2500000000000000  0.7500000000000000  0.3516102415853695   F   F   F
  0.5000000000000000  0.5000000000000000  0.3516102415853695   F   F   F
  0.2487066704332577  0.5000000000000000  0.6501301015209151   F   F   F
  0.5000000000000000  0.7512933295667423  0.6501301015209151   F   F   F
  0.2499824678868237  0.7500175321131763  0.5496245650511042   F   F   F
  0.5000000000000000  0.5000000000000000  0.5500949743114560   F   F   F
  0.7500000000000000  0.0000000000000000  0.4505367471951232   F   F   F
  0.0000000000000000  0.2500000000000000  0.4505367471951232   F   F   F
  0.7500000000000000  0.2500000000000000  0.3516102415853695   F   F   F
  0.0000000000000000  0.0000000000000000  0.3516102415853695   F   F   F
  0.7502693431351091  0.0000000000000000  0.6500549255985604   F   F   F
  0.0000000000000000  0.2497306568648909  0.6500549255985604   F   F   F
  0.7500175321131763  0.2499824678868237  0.5496245650511042   F   F   F
  0.0000000000000000  0.0000000000000000  0.5495583330617961   F   F   F
  0.7500000000000000  0.5000000000000000  0.4505367471951232   F   F   F
  0.0000000000000000  0.7500000000000000  0.4505367471951232   F   F   F
  0.7500000000000000  0.7500000000000000  0.3516102415853695   F   F   F
  0.0000000000000000  0.5000000000000000  0.3516102415853695   F   F   F
  0.7512933295667423  0.5000000000000000  0.6501301015209151   F   F   F
  0.0000000000000000  0.7502693431351091  0.6500549255985604   F   F   F
  0.7500175321131763  0.7500175321131763  0.5496245650511042   F   F   F
  0.0000000000000000  0.5000000000000000  0.5495477826614845   F   F   F

  0.00000000E+00  0.00000000E+00  0.00000000E+00
  0.00000000E+00  0.00000000E+00  0.00000000E+00
  0.00000000E+00  0.00000000E+00  0.00000000E+00
  0.00000000E+00  0.00000000E+00  0.00000000E+00
  0.00000000E+00  0.00000000E+00  0.00000000E+00
  0.00000000E+00  0.00000000E+00  0.00000000E+00
  0.00000000E+00  0.00000000E+00  0.00000000E+00
  0.00000000E+00  0.00000000E+00  0.00000000E+00
  0.00000000E+00  0.00000000E+00  0.00000000E+00
  0.00000000E+00  0.00000000E+00  0.00000000E+00
  0.00000000E+00  0.00000000E+00  0.00000000E+00
  0.00000000E+00  0.00000000E+00  0.00000000E+00
  0.00000000E+00  0.00000000E+00  0.00000000E+00
  0.00000000E+00  0.00000000E+00  0.00000000E+00
  0.00000000E+00  0.00000000E+00  0.00000000E+00
  0.00000000E+00  0.00000000E+00  0.00000000E+00
  0.00000000E+00  0.00000000E+00  0.00000000E+00
  0.00000000E+00  0.00000000E+00  0.00000000E+00
  0.00000000E+00  0.00000000E+00  0.00000000E+00
  0.00000000E+00  0.00000000E+00  0.00000000E+00
  0.00000000E+00  0.00000000E+00  0.00000000E+00
  0.00000000E+00  0.00000000E+00  0.00000000E+00
  0.00000000E+00  0.00000000E+00  0.00000000E+00
  0.00000000E+00  0.00000000E+00  0.00000000E+00
  0.00000000E+00  0.00000000E+00  0.00000000E+00
  0.00000000E+00  0.00000000E+00  0.00000000E+00
  0.00000000E+00  0.00000000E+00  0.00000000E+00
  0.00000000E+00  0.00000000E+00  0.00000000E+00
  0.00000000E+00  0.00000000E+00  0.00000000E+00
  0.00000000E+00  0.00000000E+00  0.00000000E+00
  0.00000000E+00  0.00000000E+00  0.00000000E+00
  0.00000000E+00  0.00000000E+00  0.00000000E+00
  0.00000000E+00  0.00000000E+00  0.00000000E+00
  0.00000000E+00  0.00000000E+00  0.00000000E+00
  0.00000000E+00  0.00000000E+00  0.00000000E+00
  0.00000000E+00  0.00000000E+00  0.00000000E+00
  0.00000000E+00  0.00000000E+00  0.00000000E+00
  0.00000000E+00  0.00000000E+00  0.00000000E+00
  0.00000000E+00  0.00000000E+00  0.00000000E+00
  0.00000000E+00  0.00000000E+00  0.00000000E+00
  0.00000000E+00  0.00000000E+00  0.00000000E+00
  0.00000000E+00  0.00000000E+00  0.00000000E+00
  0.00000000E+00  0.00000000E+00  0.00000000E+00
  0.00000000E+00  0.00000000E+00  0.00000000E+00
  0.00000000E+00  0.00000000E+00  0.00000000E+00
  0.00000000E+00  0.00000000E+00  0.00000000E+00
  0.00000000E+00  0.00000000E+00  0.00000000E+00
  0.00000000E+00  0.00000000E+00  0.00000000E+00
  0.00000000E+00  0.00000000E+00  0.00000000E+00
  0.00000000E+00  0.00000000E+00  0.00000000E+00
  0.00000000E+00  0.00000000E+00  0.00000000E+00
  0.00000000E+00  0.00000000E+00  0.00000000E+00
  0.00000000E+00  0.00000000E+00  0.00000000E+00
  0.00000000E+00  0.00000000E+00  0.00000000E+00
  0.00000000E+00  0.00000000E+00  0.00000000E+00
  0.00000000E+00  0.00000000E+00  0.00000000E+00
  0.00000000E+00  0.00000000E+00  0.00000000E+00
  0.00000000E+00  0.00000000E+00  0.00000000E+00
  0.00000000E+00  0.00000000E+00  0.00000000E+00
  0.00000000E+00  0.00000000E+00  0.00000000E+00
  0.00000000E+00  0.00000000E+00  0.00000000E+00
  0.00000000E+00  0.00000000E+00  0.00000000E+00
  0.00000000E+00  0.00000000E+00  0.00000000E+00
  0.00000000E+00  0.00000000E+00  0.00000000E+00
  0.00000000E+00  0.00000000E+00  0.00000000E+00
  0.00000000E+00  0.00000000E+00  0.00000000E+00
