 C  O Mg  O                             
   1.0000000000000000     
     8.4409846541513982    0.0000000000000000    0.0000000000000000
     0.0000000000000000    8.4409846541513982    0.0000000000000000
     0.0000000000000000    0.0000000000000000   21.3307384906135482
   C    O    Mg   O 
     1     1    32    32
Selective dynamics
Direct
  0.5000000000000000  0.5000000000000000  0.7656334071322641   T   T   T
  0.5000000000000000  0.5000000000000000  0.8193922410509115   T   T   T
  0.0000000000000000  0.7500000000000000  0.3516052668922072   F   F   F
  0.2500000000000000  0.0000000000000000  0.3516052668922072   F   F   F
  0.0000000000000000  0.0000000000000000  0.4505350889640667   F   F   F
  0.2500000000000000  0.7500000000000000  0.4505350889640667   F   F   F
 -0.0000000000000000  0.7499040300612969  0.5500315700358726   T   T   T
  0.2500959699387026  0.0000000000000000  0.5500315700358726   T   T   T
 -0.0000000000000000  0.0000000000000000  0.6486144522190209   T   T   T
  0.2498549543947318  0.7501450456052685  0.6485255876985595   T   T   T
  0.0000000000000000  0.2500000000000000  0.3516052668922072   F   F   F
  0.2500000000000000  0.5000000000000000  0.3516052668922072   F   F   F
  0.0000000000000000  0.5000000000000000  0.4505350889640667   F   F   F
  0.2500000000000000  0.2500000000000000  0.4505350889640667   F   F   F
 -0.0000000000000000  0.2500959699387026  0.5500315700358726   T   T   T
  0.2503712872612492  0.5000000000000000  0.5502090049134261   T   T   T
 -0.0000000000000000  0.5000000000000000  0.6485808848157545   T   T   T
  0.2498549543947318  0.2498549543947318  0.6485255876985595   T   T   T
  0.5000000000000000  0.7500000000000000  0.3516052668922072   F   F   F
  0.7500000000000000  0.0000000000000000  0.3516052668922072   F   F   F
  0.5000000000000000  0.0000000000000000  0.4505350889640667   F   F   F
  0.7500000000000000  0.7500000000000000  0.4505350889640667   F   F   F
  0.5000000000000000  0.7496287127387506  0.5502090049134261   T   T   T
  0.7499040300612969  0.0000000000000000  0.5500315700358726   T   T   T
  0.5000000000000000  0.0000000000000000  0.6485808848157545   T   T   T
  0.7501450456052685  0.7501450456052685  0.6485255876985595   T   T   T
  0.5000000000000000  0.2500000000000000  0.3516052668922072   F   F   F
  0.7500000000000000  0.5000000000000000  0.3516052668922072   F   F   F
  0.5000000000000000  0.5000000000000000  0.4505350889640667   F   F   F
  0.7500000000000000  0.2500000000000000  0.4505350889640667   F   F   F
  0.5000000000000000  0.2503712872612492  0.5502090049134261   T   T   T
  0.7496287127387506  0.5000000000000000  0.5502090049134261   T   T   T
  0.5000000000000000  0.5000000000000000  0.6506533128159939   T   T   T
  0.7501450456052685  0.2498549543947318  0.6485255876985595   T   T   T
  0.0000000000000000  0.7500000000000000  0.4505350889640667   F   F   F
  0.2500000000000000  0.0000000000000000  0.4505350889640667   F   F   F
  0.0000000000000000  0.0000000000000000  0.3516052668922072   F   F   F
  0.2500000000000000  0.7500000000000000  0.3516052668922072   F   F   F
 -0.0000000000000000  0.7501891963120724  0.6508782833477310   T   T   T
  0.2498108036879276  0.0000000000000000  0.6508782833477310   T   T   T
 -0.0000000000000000  0.0000000000000000  0.5497848423853411   T   T   T
  0.2499987006800580  0.7500012993199416  0.5498344753400819   T   T   T
  0.0000000000000000  0.2500000000000000  0.4505350889640667   F   F   F
  0.2500000000000000  0.5000000000000000  0.4505350889640667   F   F   F
  0.0000000000000000  0.5000000000000000  0.3516052668922072   F   F   F
  0.2500000000000000  0.2500000000000000  0.3516052668922072   F   F   F
 -0.0000000000000000  0.2498108036879276  0.6508782833477310   T   T   T
  0.2488384336011405  0.5000000000000000  0.6508824299628323   T   T   T
 -0.0000000000000000  0.5000000000000000  0.5497599635620288   T   T   T
  0.2499987006800580  0.2499987006800580  0.5498344753400819   T   T   T
  0.5000000000000000  0.7500000000000000  0.4505350889640667   F   F   F
  0.7500000000000000  0.0000000000000000  0.4505350889640667   F   F   F
  0.5000000000000000  0.0000000000000000  0.3516052668922072   F   F   F
  0.7500000000000000  0.7500000000000000  0.3516052668922072   F   F   F
  0.5000000000000000  0.7511615663988592  0.6508824299628323   T   T   T
  0.7501891963120724  0.0000000000000000  0.6508782833477310   T   T   T
  0.5000000000000000  0.0000000000000000  0.5497599635620288   T   T   T
  0.7500012993199416  0.7500012993199416  0.5498344753400819   T   T   T
  0.5000000000000000  0.2500000000000000  0.4505350889640667   F   F   F
  0.7500000000000000  0.5000000000000000  0.4505350889640667   F   F   F
  0.5000000000000000  0.5000000000000000  0.3516052668922072   F   F   F
  0.7500000000000000  0.2500000000000000  0.3516052668922072   F   F   F
  0.5000000000000000  0.2488384336011405  0.6508824299628323   T   T   T
  0.7511615663988592  0.5000000000000000  0.6508824299628323   T   T   T
  0.5000000000000000  0.5000000000000000  0.5502222923698721   T   T   T
  0.7500012993199416  0.2499987006800580  0.5498344753400819   T   T   T

  0.00000000E+00  0.00000000E+00  0.00000000E+00
  0.00000000E+00  0.00000000E+00  0.00000000E+00
  0.00000000E+00  0.00000000E+00  0.00000000E+00
  0.00000000E+00  0.00000000E+00  0.00000000E+00
  0.00000000E+00  0.00000000E+00  0.00000000E+00
  0.00000000E+00  0.00000000E+00  0.00000000E+00
  0.00000000E+00  0.00000000E+00  0.00000000E+00
  0.00000000E+00  0.00000000E+00  0.00000000E+00
  0.00000000E+00  0.00000000E+00  0.00000000E+00
  0.00000000E+00  0.00000000E+00  0.00000000E+00
  0.00000000E+00  0.00000000E+00  0.00000000E+00
  0.00000000E+00  0.00000000E+00  0.00000000E+00
  0.00000000E+00  0.00000000E+00  0.00000000E+00
  0.00000000E+00  0.00000000E+00  0.00000000E+00
  0.00000000E+00  0.00000000E+00  0.00000000E+00
  0.00000000E+00  0.00000000E+00  0.00000000E+00
  0.00000000E+00  0.00000000E+00  0.00000000E+00
  0.00000000E+00  0.00000000E+00  0.00000000E+00
  0.00000000E+00  0.00000000E+00  0.00000000E+00
  0.00000000E+00  0.00000000E+00  0.00000000E+00
  0.00000000E+00  0.00000000E+00  0.00000000E+00
  0.00000000E+00  0.00000000E+00  0.00000000E+00
  0.00000000E+00  0.00000000E+00  0.00000000E+00
  0.00000000E+00  0.00000000E+00  0.00000000E+00
  0.00000000E+00  0.00000000E+00  0.00000000E+00
  0.00000000E+00  0.00000000E+00  0.00000000E+00
  0.00000000E+00  0.00000000E+00  0.00000000E+00
  0.00000000E+00  0.00000000E+00  0.00000000E+00
  0.00000000E+00  0.00000000E+00  0.00000000E+00
  0.00000000E+00  0.00000000E+00  0.00000000E+00
  0.00000000E+00  0.00000000E+00  0.00000000E+00
  0.00000000E+00  0.00000000E+00  0.00000000E+00
  0.00000000E+00  0.00000000E+00  0.00000000E+00
  0.00000000E+00  0.00000000E+00  0.00000000E+00
  0.00000000E+00  0.00000000E+00  0.00000000E+00
  0.00000000E+00  0.00000000E+00  0.00000000E+00
  0.00000000E+00  0.00000000E+00  0.00000000E+00
  0.00000000E+00  0.00000000E+00  0.00000000E+00
  0.00000000E+00  0.00000000E+00  0.00000000E+00
  0.00000000E+00  0.00000000E+00  0.00000000E+00
  0.00000000E+00  0.00000000E+00  0.00000000E+00
  0.00000000E+00  0.00000000E+00  0.00000000E+00
  0.00000000E+00  0.00000000E+00  0.00000000E+00
  0.00000000E+00  0.00000000E+00  0.00000000E+00
  0.00000000E+00  0.00000000E+00  0.00000000E+00
  0.00000000E+00  0.00000000E+00  0.00000000E+00
  0.00000000E+00  0.00000000E+00  0.00000000E+00
  0.00000000E+00  0.00000000E+00  0.00000000E+00
  0.00000000E+00  0.00000000E+00  0.00000000E+00
  0.00000000E+00  0.00000000E+00  0.00000000E+00
  0.00000000E+00  0.00000000E+00  0.00000000E+00
  0.00000000E+00  0.00000000E+00  0.00000000E+00
  0.00000000E+00  0.00000000E+00  0.00000000E+00
  0.00000000E+00  0.00000000E+00  0.00000000E+00
  0.00000000E+00  0.00000000E+00  0.00000000E+00
  0.00000000E+00  0.00000000E+00  0.00000000E+00
  0.00000000E+00  0.00000000E+00  0.00000000E+00
  0.00000000E+00  0.00000000E+00  0.00000000E+00
  0.00000000E+00  0.00000000E+00  0.00000000E+00
  0.00000000E+00  0.00000000E+00  0.00000000E+00
  0.00000000E+00  0.00000000E+00  0.00000000E+00
  0.00000000E+00  0.00000000E+00  0.00000000E+00
  0.00000000E+00  0.00000000E+00  0.00000000E+00
  0.00000000E+00  0.00000000E+00  0.00000000E+00
  0.00000000E+00  0.00000000E+00  0.00000000E+00
  0.00000000E+00  0.00000000E+00  0.00000000E+00
