 C  O 
 1.0000000000000000
    12.6614769812270964    0.0000000000000000    0.0000000000000000
     0.0000000000000000   12.6614769812270964    0.0000000000000000
     0.0000000000000000    0.0000000000000000   21.3307384906135482
   C   O
   1   1
Direct
  0.4999999999999998  0.4999999999999998  0.7609084185133009
  0.4999999999999998  0.4999999999999998  0.8146616150985438
