 C  O Mg  O                             
   1.00000000000000     
     8.4409846541513982    0.0000000000000000    0.0000000000000000
     0.0000000000000000    8.4409846541513982    0.0000000000000000
     0.0000000000000000    0.0000000000000000   25.9659824075199559
   C    O    Mg   O 
     1     1    32    32
Direct
  0.5000000000000000  0.5000000000000000  0.6477383496951532
  0.5000000000000000  0.5000000000000000  0.6919045898420109
  0.0000000000000000  0.7500000000000000  0.3080954101579891
  0.2500000000000000  0.0000000000000000  0.3080954101579891
  0.0000000000000000  0.0000000000000000  0.3893650548191729
  0.2500000000000000  0.7500000000000000  0.3893650548191729
  0.0000000000000000  0.7499392679099373  0.4711426484708241
  0.2500607320900627  0.0000000000000000  0.4711426484708241
  0.0000000000000000  0.0000000000000000  0.5521923380882896
  0.2498583271629329  0.7501416728370671  0.5520479517281558
  0.0000000000000000  0.2500000000000000  0.3080954101579891
  0.2500000000000000  0.5000000000000000  0.3080954101579891
  0.0000000000000000  0.5000000000000000  0.3893650548191729
  0.2500000000000000  0.2500000000000000  0.3893650548191729
  0.0000000000000000  0.2500607320900627  0.4711426484708241
  0.2503783790197005  0.5000000000000000  0.4712546046696033
  0.0000000000000000  0.5000000000000000  0.5520855210905111
  0.2498583271629329  0.2498583271629329  0.5520479517281558
  0.5000000000000000  0.7500000000000000  0.3080954101579891
  0.7500000000000000  0.0000000000000000  0.3080954101579891
  0.5000000000000000  0.0000000000000000  0.3893650548191729
  0.7500000000000000  0.7500000000000000  0.3893650548191729
  0.5000000000000000  0.7496216209802995  0.4712546046696033
  0.7499392679099373  0.0000000000000000  0.4711426484708241
  0.5000000000000000  0.0000000000000000  0.5520855210905111
  0.7501416728370671  0.7501416728370671  0.5520479517281558
  0.5000000000000000  0.2500000000000000  0.3080954101579891
  0.7500000000000000  0.5000000000000000  0.3080954101579891
  0.5000000000000000  0.5000000000000000  0.3893650548191729
  0.7500000000000000  0.2500000000000000  0.3893650548191729
  0.5000000000000000  0.2503783790197005  0.4712546046696033
  0.7496216209802995  0.5000000000000000  0.4712546046696033
  0.5000000000000000  0.5000000000000000  0.5537298766068801
  0.7501416728370671  0.2498583271629329  0.5520479517281558
  0.0000000000000000  0.7500000000000000  0.3893650548191729
  0.2500000000000000  0.0000000000000000  0.3893650548191729
  0.0000000000000000  0.0000000000000000  0.3080954101579891
  0.2500000000000000  0.7500000000000000  0.3080954101579891
  0.0000000000000000  0.7502185328875299  0.5540274975611439
  0.2497814671124701  0.0000000000000000  0.5540274975611439
  0.0000000000000000  0.0000000000000000  0.4709180959044375
  0.2499457704965096  0.7500542295034904  0.4709585317227223
  0.0000000000000000  0.2500000000000000  0.3893650548191729
  0.2500000000000000  0.5000000000000000  0.3893650548191729
  0.0000000000000000  0.5000000000000000  0.3080954101579891
  0.2500000000000000  0.2500000000000000  0.3080954101579891
  0.0000000000000000  0.2497814671124701  0.5540274975611439
  0.2488227096466176  0.5000000000000000  0.5539483196908321
  0.0000000000000000  0.5000000000000000  0.4708793012255796
  0.2499457704965096  0.2499457704965096  0.4709585317227223
  0.5000000000000000  0.7500000000000000  0.3893650548191729
  0.7500000000000000  0.0000000000000000  0.3893650548191729
  0.5000000000000000  0.0000000000000000  0.3080954101579891
  0.7500000000000000  0.7500000000000000  0.3080954101579891
  0.5000000000000000  0.7511772903533824  0.5539483196908321
  0.7502185328875299  0.0000000000000000  0.5540274975611439
  0.5000000000000000  0.0000000000000000  0.4708793012255796
  0.7500542295034904  0.7500542295034904  0.4709585317227223
  0.5000000000000000  0.2500000000000000  0.3893650548191729
  0.7500000000000000  0.5000000000000000  0.3893650548191729
  0.5000000000000000  0.5000000000000000  0.3080954101579891
  0.7500000000000000  0.2500000000000000  0.3080954101579891
  0.5000000000000000  0.2488227096466176  0.5539483196908321
  0.7511772903533824  0.5000000000000000  0.5539483196908321
  0.5000000000000000  0.5000000000000000  0.4712643253954809
  0.7500542295034904  0.2499457704965096  0.4709585317227223
 
  0.00000000E+00  0.00000000E+00  0.00000000E+00
  0.00000000E+00  0.00000000E+00  0.00000000E+00
  0.00000000E+00  0.00000000E+00  0.00000000E+00
  0.00000000E+00  0.00000000E+00  0.00000000E+00
  0.00000000E+00  0.00000000E+00  0.00000000E+00
  0.00000000E+00  0.00000000E+00  0.00000000E+00
  0.00000000E+00  0.00000000E+00  0.00000000E+00
  0.00000000E+00  0.00000000E+00  0.00000000E+00
  0.00000000E+00  0.00000000E+00  0.00000000E+00
  0.00000000E+00  0.00000000E+00  0.00000000E+00
  0.00000000E+00  0.00000000E+00  0.00000000E+00
  0.00000000E+00  0.00000000E+00  0.00000000E+00
  0.00000000E+00  0.00000000E+00  0.00000000E+00
  0.00000000E+00  0.00000000E+00  0.00000000E+00
  0.00000000E+00  0.00000000E+00  0.00000000E+00
  0.00000000E+00  0.00000000E+00  0.00000000E+00
  0.00000000E+00  0.00000000E+00  0.00000000E+00
  0.00000000E+00  0.00000000E+00  0.00000000E+00
  0.00000000E+00  0.00000000E+00  0.00000000E+00
  0.00000000E+00  0.00000000E+00  0.00000000E+00
  0.00000000E+00  0.00000000E+00  0.00000000E+00
  0.00000000E+00  0.00000000E+00  0.00000000E+00
  0.00000000E+00  0.00000000E+00  0.00000000E+00
  0.00000000E+00  0.00000000E+00  0.00000000E+00
  0.00000000E+00  0.00000000E+00  0.00000000E+00
  0.00000000E+00  0.00000000E+00  0.00000000E+00
  0.00000000E+00  0.00000000E+00  0.00000000E+00
  0.00000000E+00  0.00000000E+00  0.00000000E+00
  0.00000000E+00  0.00000000E+00  0.00000000E+00
  0.00000000E+00  0.00000000E+00  0.00000000E+00
  0.00000000E+00  0.00000000E+00  0.00000000E+00
  0.00000000E+00  0.00000000E+00  0.00000000E+00
  0.00000000E+00  0.00000000E+00  0.00000000E+00
  0.00000000E+00  0.00000000E+00  0.00000000E+00
  0.00000000E+00  0.00000000E+00  0.00000000E+00
  0.00000000E+00  0.00000000E+00  0.00000000E+00
  0.00000000E+00  0.00000000E+00  0.00000000E+00
  0.00000000E+00  0.00000000E+00  0.00000000E+00
  0.00000000E+00  0.00000000E+00  0.00000000E+00
  0.00000000E+00  0.00000000E+00  0.00000000E+00
  0.00000000E+00  0.00000000E+00  0.00000000E+00
  0.00000000E+00  0.00000000E+00  0.00000000E+00
  0.00000000E+00  0.00000000E+00  0.00000000E+00
  0.00000000E+00  0.00000000E+00  0.00000000E+00
  0.00000000E+00  0.00000000E+00  0.00000000E+00
  0.00000000E+00  0.00000000E+00  0.00000000E+00
  0.00000000E+00  0.00000000E+00  0.00000000E+00
  0.00000000E+00  0.00000000E+00  0.00000000E+00
  0.00000000E+00  0.00000000E+00  0.00000000E+00
  0.00000000E+00  0.00000000E+00  0.00000000E+00
  0.00000000E+00  0.00000000E+00  0.00000000E+00
  0.00000000E+00  0.00000000E+00  0.00000000E+00
  0.00000000E+00  0.00000000E+00  0.00000000E+00
  0.00000000E+00  0.00000000E+00  0.00000000E+00
  0.00000000E+00  0.00000000E+00  0.00000000E+00
  0.00000000E+00  0.00000000E+00  0.00000000E+00
  0.00000000E+00  0.00000000E+00  0.00000000E+00
  0.00000000E+00  0.00000000E+00  0.00000000E+00
  0.00000000E+00  0.00000000E+00  0.00000000E+00
  0.00000000E+00  0.00000000E+00  0.00000000E+00
  0.00000000E+00  0.00000000E+00  0.00000000E+00
  0.00000000E+00  0.00000000E+00  0.00000000E+00
  0.00000000E+00  0.00000000E+00  0.00000000E+00
  0.00000000E+00  0.00000000E+00  0.00000000E+00
  0.00000000E+00  0.00000000E+00  0.00000000E+00
  0.00000000E+00  0.00000000E+00  0.00000000E+00
