 C  O Mg  O 
 1.0000000000000000
     8.4409846541513982    0.0000000000000000    0.0000000000000000
     0.0000000000000000    8.4409846541513982    0.0000000000000000
     0.0000000000000000    0.0000000000000000   25.9659824075199559
   C   O  Mg   O
   1   1  32  32
Direct
  0.5000000000000000  0.5000000000000000  0.6477383496951540
  0.5000000000000000  0.5000000000000000  0.6919045898420105
  0.0000000000000000  0.7500000000000000  0.3080954101579895
  0.2500000000000000  0.0000000000000000  0.3080954101579895
  0.0000000000000000  0.0000000000000000  0.3893650548191758
  0.2500000000000000  0.7500000000000000  0.3893650548191758
  0.0000000000000000  0.7499392679099361  0.4711426484708221
  0.2500607320900638  0.0000000000000000  0.4711426484708221
  0.0000000000000000  0.0000000000000000  0.5521923380882927
  0.2498583271629312  0.7501416728370690  0.5520479517281585
  0.0000000000000000  0.2500000000000000  0.3080954101579895
  0.2500000000000000  0.5000000000000000  0.3080954101579895
  0.0000000000000000  0.5000000000000000  0.3893650548191758
  0.2500000000000000  0.2500000000000000  0.3893650548191758
  0.0000000000000000  0.2500607320900638  0.4711426484708221
  0.2503783790197028  0.5000000000000000  0.4712546046696048
  0.0000000000000000  0.5000000000000000  0.5520855210905116
  0.2498583271629312  0.2498583271629312  0.5520479517281585
  0.5000000000000000  0.7500000000000000  0.3080954101579895
  0.7500000000000000  0.0000000000000000  0.3080954101579895
  0.5000000000000000  0.0000000000000000  0.3893650548191758
  0.7500000000000000  0.7500000000000000  0.3893650548191758
  0.5000000000000000  0.7496216209802971  0.4712546046696048
  0.7499392679099361  0.0000000000000000  0.4711426484708221
  0.5000000000000000  0.0000000000000000  0.5520855210905116
  0.7501416728370690  0.7501416728370690  0.5520479517281585
  0.5000000000000000  0.2500000000000000  0.3080954101579895
  0.7500000000000000  0.5000000000000000  0.3080954101579895
  0.5000000000000000  0.5000000000000000  0.3893650548191758
  0.7500000000000000  0.2500000000000000  0.3893650548191758
  0.5000000000000000  0.2503783790197028  0.4712546046696048
  0.7496216209802971  0.5000000000000000  0.4712546046696048
  0.5000000000000000  0.5000000000000000  0.5537298766068820
  0.7501416728370690  0.2498583271629312  0.5520479517281585
  0.0000000000000000  0.7500000000000000  0.3893650548191758
  0.2500000000000000  0.0000000000000000  0.3893650548191758
  0.0000000000000000  0.0000000000000000  0.3080954101579895
  0.2500000000000000  0.7500000000000000  0.3080954101579895
  0.0000000000000000  0.7502185328875304  0.5540274975611442
  0.2497814671124697  0.0000000000000000  0.5540274975611442
  0.0000000000000000  0.0000000000000000  0.4709180959044355
  0.2499457704965093  0.7500542295034907  0.4709585317227196
  0.0000000000000000  0.2500000000000000  0.3893650548191758
  0.2500000000000000  0.5000000000000000  0.3893650548191758
  0.0000000000000000  0.5000000000000000  0.3080954101579895
  0.2500000000000000  0.2500000000000000  0.3080954101579895
  0.0000000000000000  0.2497814671124697  0.5540274975611442
  0.2488227096466181  0.5000000000000000  0.5539483196908306
  0.0000000000000000  0.5000000000000000  0.4708793012255776
  0.2499457704965093  0.2499457704965093  0.4709585317227196
  0.5000000000000000  0.7500000000000000  0.3893650548191758
  0.7500000000000000  0.0000000000000000  0.3893650548191758
  0.5000000000000000  0.0000000000000000  0.3080954101579895
  0.7500000000000000  0.7500000000000000  0.3080954101579895
  0.5000000000000000  0.7511772903533822  0.5539483196908306
  0.7502185328875304  0.0000000000000000  0.5540274975611442
  0.5000000000000000  0.0000000000000000  0.4708793012255776
  0.7500542295034907  0.7500542295034907  0.4709585317227196
  0.5000000000000000  0.2500000000000000  0.3893650548191758
  0.7500000000000000  0.5000000000000000  0.3893650548191758
  0.5000000000000000  0.5000000000000000  0.3080954101579895
  0.7500000000000000  0.2500000000000000  0.3080954101579895
  0.5000000000000000  0.2488227096466181  0.5539483196908306
  0.7511772903533822  0.5000000000000000  0.5539483196908306
  0.5000000000000000  0.5000000000000000  0.4712643253954841
  0.7500542295034907  0.2499457704965093  0.4709585317227196
