Mg  O                                   
   1.00000000000000     
     8.4405822620844617    0.0000000000000000    0.0000000000000000
     0.0000000000000000    8.4405822620844617    0.0000000000000000
     0.0000000000000000    0.0000000000000000   21.3304366965633463
   Mg   O 
    32    32
Selective dynamics
Direct
  0.2500000000000000  0.0000000000000000  0.3516102415853695   F   F   F
  0.5000000000000000  0.2500000000000000  0.3516102415853695   F   F   F
  0.2500000000000000  0.2500000000000000  0.4505367471951232   F   F   F
  0.5000000000000000  0.0000000000000000  0.4505367471951232   F   F   F
  0.2500000000000000 -0.0000000000000000  0.5499512999923775   T   T   T
  0.5000000000000000  0.2500000000000000  0.5499512999923775   T   T   T
  0.2500000000000000  0.2500000000000000  0.6483291746025307   T   T   T
  0.5000000000000000 -0.0000000000000000  0.6483291746025307   T   T   T
  0.2500000000000000  0.5000000000000000  0.3516102415853695   F   F   F
  0.5000000000000000  0.7500000000000000  0.3516102415853695   F   F   F
  0.2500000000000000  0.7500000000000000  0.4505367471951232   F   F   F
  0.5000000000000000  0.5000000000000000  0.4505367471951232   F   F   F
  0.2500000000000000  0.5000000000000000  0.5499512999923775   T   T   T
  0.5000000000000000  0.7500000000000000  0.5499512999923775   T   T   T
  0.2500000000000000  0.7500000000000000  0.6483291746025307   T   T   T
  0.5000000000000000  0.5000000000000000  0.6483291746025307   T   T   T
  0.7500000000000000  0.0000000000000000  0.3516102415853695   F   F   F
  0.0000000000000000  0.2500000000000000  0.3516102415853695   F   F   F
  0.7500000000000000  0.2500000000000000  0.4505367471951232   F   F   F
  0.0000000000000000  0.0000000000000000  0.4505367471951232   F   F   F
  0.7500000000000000  0.0000000000000000  0.5499512999923775   T   T   T
  0.0000000000000000  0.2500000000000000  0.5499512999923775   T   T   T
  0.7500000000000000  0.2500000000000000  0.6483291746025307   T   T   T
  0.0000000000000000  0.0000000000000000  0.6483291746025307   T   T   T
  0.7500000000000000  0.5000000000000000  0.3516102415853695   F   F   F
  0.0000000000000000  0.7500000000000000  0.3516102415853695   F   F   F
  0.7500000000000000  0.7500000000000000  0.4505367471951232   F   F   F
  0.0000000000000000  0.5000000000000000  0.4505367471951232   F   F   F
  0.7500000000000000  0.5000000000000000  0.5499512999923775   T   T   T
  0.0000000000000000  0.7500000000000000  0.5499512999923775   T   T   T
  0.7500000000000000  0.7500000000000000  0.6483291746025307   T   T   T
  0.0000000000000000  0.5000000000000000  0.6483291746025307   T   T   T
  0.2500000000000000  0.0000000000000000  0.4505367471951232   F   F   F
  0.5000000000000000  0.2500000000000000  0.4505367471951232   F   F   F
  0.2500000000000000  0.2500000000000000  0.3516102415853695   F   F   F
  0.5000000000000000  0.0000000000000000  0.3516102415853695   F   F   F
  0.2500000000000000 -0.0000000000000000  0.6501639725610580   T   T   T
  0.5000000000000000  0.2500000000000000  0.6501639725610580   T   T   T
  0.2500000000000000  0.2500000000000000  0.5496586111330509   T   T   T
  0.5000000000000000 -0.0000000000000000  0.5496586111330509   T   T   T
  0.2500000000000000  0.5000000000000000  0.4505367471951232   F   F   F
  0.5000000000000000  0.7500000000000000  0.4505367471951232   F   F   F
  0.2500000000000000  0.7500000000000000  0.3516102415853695   F   F   F
  0.5000000000000000  0.5000000000000000  0.3516102415853695   F   F   F
  0.2500000000000000  0.5000000000000000  0.6501639725610580   T   T   T
  0.5000000000000000  0.7500000000000000  0.6501639725610580   T   T   T
  0.2500000000000000  0.7500000000000000  0.5496586111330509   T   T   T
  0.5000000000000000  0.5000000000000000  0.5496586111330509   T   T   T
  0.7500000000000000  0.0000000000000000  0.4505367471951232   F   F   F
  0.0000000000000000  0.2500000000000000  0.4505367471951232   F   F   F
  0.7500000000000000  0.2500000000000000  0.3516102415853695   F   F   F
  0.0000000000000000  0.0000000000000000  0.3516102415853695   F   F   F
  0.7500000000000000 -0.0000000000000000  0.6501639725610580   T   T   T
 -0.0000000000000000  0.2500000000000000  0.6501639725610580   T   T   T
  0.7500000000000000  0.2500000000000000  0.5496586111330509   T   T   T
 -0.0000000000000000 -0.0000000000000000  0.5496586111330509   T   T   T
  0.7500000000000000  0.5000000000000000  0.4505367471951232   F   F   F
  0.0000000000000000  0.7500000000000000  0.4505367471951232   F   F   F
  0.7500000000000000  0.7500000000000000  0.3516102415853695   F   F   F
  0.0000000000000000  0.5000000000000000  0.3516102415853695   F   F   F
  0.7500000000000000  0.5000000000000000  0.6501639725610580   T   T   T
 -0.0000000000000000  0.7500000000000000  0.6501639725610580   T   T   T
  0.7500000000000000  0.7500000000000000  0.5496586111330509   T   T   T
 -0.0000000000000000  0.5000000000000000  0.5496586111330509   T   T   T
 
  0.00000000E+00  0.00000000E+00  0.00000000E+00
  0.00000000E+00  0.00000000E+00  0.00000000E+00
  0.00000000E+00  0.00000000E+00  0.00000000E+00
  0.00000000E+00  0.00000000E+00  0.00000000E+00
  0.00000000E+00  0.00000000E+00  0.00000000E+00
  0.00000000E+00  0.00000000E+00  0.00000000E+00
  0.00000000E+00  0.00000000E+00  0.00000000E+00
  0.00000000E+00  0.00000000E+00  0.00000000E+00
  0.00000000E+00  0.00000000E+00  0.00000000E+00
  0.00000000E+00  0.00000000E+00  0.00000000E+00
  0.00000000E+00  0.00000000E+00  0.00000000E+00
  0.00000000E+00  0.00000000E+00  0.00000000E+00
  0.00000000E+00  0.00000000E+00  0.00000000E+00
  0.00000000E+00  0.00000000E+00  0.00000000E+00
  0.00000000E+00  0.00000000E+00  0.00000000E+00
  0.00000000E+00  0.00000000E+00  0.00000000E+00
  0.00000000E+00  0.00000000E+00  0.00000000E+00
  0.00000000E+00  0.00000000E+00  0.00000000E+00
  0.00000000E+00  0.00000000E+00  0.00000000E+00
  0.00000000E+00  0.00000000E+00  0.00000000E+00
  0.00000000E+00  0.00000000E+00  0.00000000E+00
  0.00000000E+00  0.00000000E+00  0.00000000E+00
  0.00000000E+00  0.00000000E+00  0.00000000E+00
  0.00000000E+00  0.00000000E+00  0.00000000E+00
  0.00000000E+00  0.00000000E+00  0.00000000E+00
  0.00000000E+00  0.00000000E+00  0.00000000E+00
  0.00000000E+00  0.00000000E+00  0.00000000E+00
  0.00000000E+00  0.00000000E+00  0.00000000E+00
  0.00000000E+00  0.00000000E+00  0.00000000E+00
  0.00000000E+00  0.00000000E+00  0.00000000E+00
  0.00000000E+00  0.00000000E+00  0.00000000E+00
  0.00000000E+00  0.00000000E+00  0.00000000E+00
  0.00000000E+00  0.00000000E+00  0.00000000E+00
  0.00000000E+00  0.00000000E+00  0.00000000E+00
  0.00000000E+00  0.00000000E+00  0.00000000E+00
  0.00000000E+00  0.00000000E+00  0.00000000E+00
  0.00000000E+00  0.00000000E+00  0.00000000E+00
  0.00000000E+00  0.00000000E+00  0.00000000E+00
  0.00000000E+00  0.00000000E+00  0.00000000E+00
  0.00000000E+00  0.00000000E+00  0.00000000E+00
  0.00000000E+00  0.00000000E+00  0.00000000E+00
  0.00000000E+00  0.00000000E+00  0.00000000E+00
  0.00000000E+00  0.00000000E+00  0.00000000E+00
  0.00000000E+00  0.00000000E+00  0.00000000E+00
  0.00000000E+00  0.00000000E+00  0.00000000E+00
  0.00000000E+00  0.00000000E+00  0.00000000E+00
  0.00000000E+00  0.00000000E+00  0.00000000E+00
  0.00000000E+00  0.00000000E+00  0.00000000E+00
  0.00000000E+00  0.00000000E+00  0.00000000E+00
  0.00000000E+00  0.00000000E+00  0.00000000E+00
  0.00000000E+00  0.00000000E+00  0.00000000E+00
  0.00000000E+00  0.00000000E+00  0.00000000E+00
  0.00000000E+00  0.00000000E+00  0.00000000E+00
  0.00000000E+00  0.00000000E+00  0.00000000E+00
  0.00000000E+00  0.00000000E+00  0.00000000E+00
  0.00000000E+00  0.00000000E+00  0.00000000E+00
  0.00000000E+00  0.00000000E+00  0.00000000E+00
  0.00000000E+00  0.00000000E+00  0.00000000E+00
  0.00000000E+00  0.00000000E+00  0.00000000E+00
  0.00000000E+00  0.00000000E+00  0.00000000E+00
  0.00000000E+00  0.00000000E+00  0.00000000E+00
  0.00000000E+00  0.00000000E+00  0.00000000E+00
  0.00000000E+00  0.00000000E+00  0.00000000E+00
  0.00000000E+00  0.00000000E+00  0.00000000E+00
