Mg  O                                   
   1.00000000000000     
     8.4409846541513982    0.0000000000000000    0.0000000000000000
     0.0000000000000000    8.4409846541513982    0.0000000000000000
     0.0000000000000000    0.0000000000000000   26.3307384906135482
   Mg   O 
    32    32
Selective dynamics
Direct
  0.0000000000000000  0.7500000000000000  0.3797842587500853   F   F   F
  0.2500000000000000  0.0000000000000000  0.3797842587500853   F   F   F
  0.0000000000000000  0.0000000000000000  0.4599280862500308   F   F   F
  0.2500000000000000  0.7500000000000000  0.4599280862500308   F   F   F
  0.0000000000000000  0.7500000000000000  0.5406470474747035   T   T   T
  0.2500000000000000 -0.0000000000000000  0.5406470474747035   T   T   T
 -0.0000000000000000 -0.0000000000000000  0.6205452004871443   T   T   T
  0.2500000000000000  0.7500000000000000  0.6205452004871443   T   T   T
  0.0000000000000000  0.2500000000000000  0.3797842587500853   F   F   F
  0.2500000000000000  0.5000000000000000  0.3797842587500853   F   F   F
  0.0000000000000000  0.5000000000000000  0.4599280862500308   F   F   F
  0.2500000000000000  0.2500000000000000  0.4599280862500308   F   F   F
  0.0000000000000000  0.2500000000000000  0.5406470474747035   T   T   T
  0.2500000000000000  0.5000000000000000  0.5406470474747035   T   T   T
  0.0000000000000000  0.5000000000000000  0.6205452004871443   T   T   T
  0.2500000000000000  0.2500000000000000  0.6205452004871443   T   T   T
  0.5000000000000000  0.7500000000000000  0.3797842587500853   F   F   F
  0.7500000000000000  0.0000000000000000  0.3797842587500853   F   F   F
  0.5000000000000000  0.0000000000000000  0.4599280862500308   F   F   F
  0.7500000000000000  0.7500000000000000  0.4599280862500308   F   F   F
  0.5000000000000000  0.7500000000000000  0.5406470474747035   T   T   T
  0.7500000000000000  0.0000000000000000  0.5406470474747035   T   T   T
  0.5000000000000000 -0.0000000000000000  0.6205452004871443   T   T   T
  0.7500000000000000  0.7500000000000000  0.6205452004871443   T   T   T
  0.5000000000000000  0.2500000000000000  0.3797842587500853   F   F   F
  0.7500000000000000  0.5000000000000000  0.3797842587500853   F   F   F
  0.5000000000000000  0.5000000000000000  0.4599280862500308   F   F   F
  0.7500000000000000  0.2500000000000000  0.4599280862500308   F   F   F
  0.5000000000000000  0.2500000000000000  0.5406470474747035   T   T   T
  0.7500000000000000  0.5000000000000000  0.5406470474747035   T   T   T
  0.5000000000000000  0.5000000000000000  0.6205452004871443   T   T   T
  0.7500000000000000  0.2500000000000000  0.6205452004871443   T   T   T
  0.0000000000000000  0.7500000000000000  0.4599280862500308   F   F   F
  0.2500000000000000  0.0000000000000000  0.4599280862500308   F   F   F
  0.0000000000000000  0.0000000000000000  0.3797842587500853   F   F   F
  0.2500000000000000  0.7500000000000000  0.3797842587500853   F   F   F
 -0.0000000000000000  0.7500000000000000  0.6223267445470102   T   T   T
  0.2500000000000000 -0.0000000000000000  0.6223267445470102   T   T   T
 -0.0000000000000000 -0.0000000000000000  0.5403904501756083   T   T   T
  0.2500000000000000  0.7500000000000000  0.5403904501756083   T   T   T
  0.0000000000000000  0.2500000000000000  0.4599280862500308   F   F   F
  0.2500000000000000  0.5000000000000000  0.4599280862500308   F   F   F
  0.0000000000000000  0.5000000000000000  0.3797842587500853   F   F   F
  0.2500000000000000  0.2500000000000000  0.3797842587500853   F   F   F
 -0.0000000000000000  0.2500000000000000  0.6223267445470102   T   T   T
  0.2500000000000000  0.5000000000000000  0.6223267445470102   T   T   T
 -0.0000000000000000  0.5000000000000000  0.5403904501756083   T   T   T
  0.2500000000000000  0.2500000000000000  0.5403904501756083   T   T   T
  0.5000000000000000  0.7500000000000000  0.4599280862500308   F   F   F
  0.7500000000000000  0.0000000000000000  0.4599280862500308   F   F   F
  0.5000000000000000  0.0000000000000000  0.3797842587500853   F   F   F
  0.7500000000000000  0.7500000000000000  0.3797842587500853   F   F   F
  0.5000000000000000  0.7500000000000000  0.6223267445470102   T   T   T
  0.7500000000000000 -0.0000000000000000  0.6223267445470102   T   T   T
  0.5000000000000000  0.0000000000000000  0.5403904501756083   T   T   T
  0.7500000000000000  0.7500000000000000  0.5403904501756083   T   T   T
  0.5000000000000000  0.2500000000000000  0.4599280862500308   F   F   F
  0.7500000000000000  0.5000000000000000  0.4599280862500308   F   F   F
  0.5000000000000000  0.5000000000000000  0.3797842587500853   F   F   F
  0.7500000000000000  0.2500000000000000  0.3797842587500853   F   F   F
  0.5000000000000000  0.2500000000000000  0.6223267445470102   T   T   T
  0.7500000000000000  0.5000000000000000  0.6223267445470102   T   T   T
  0.5000000000000000  0.5000000000000000  0.5403904501756083   T   T   T
  0.7500000000000000  0.2500000000000000  0.5403904501756083   T   T   T
 
  0.00000000E+00  0.00000000E+00  0.00000000E+00
  0.00000000E+00  0.00000000E+00  0.00000000E+00
  0.00000000E+00  0.00000000E+00  0.00000000E+00
  0.00000000E+00  0.00000000E+00  0.00000000E+00
  0.00000000E+00  0.00000000E+00  0.00000000E+00
  0.00000000E+00  0.00000000E+00  0.00000000E+00
  0.00000000E+00  0.00000000E+00  0.00000000E+00
  0.00000000E+00  0.00000000E+00  0.00000000E+00
  0.00000000E+00  0.00000000E+00  0.00000000E+00
  0.00000000E+00  0.00000000E+00  0.00000000E+00
  0.00000000E+00  0.00000000E+00  0.00000000E+00
  0.00000000E+00  0.00000000E+00  0.00000000E+00
  0.00000000E+00  0.00000000E+00  0.00000000E+00
  0.00000000E+00  0.00000000E+00  0.00000000E+00
  0.00000000E+00  0.00000000E+00  0.00000000E+00
  0.00000000E+00  0.00000000E+00  0.00000000E+00
  0.00000000E+00  0.00000000E+00  0.00000000E+00
  0.00000000E+00  0.00000000E+00  0.00000000E+00
  0.00000000E+00  0.00000000E+00  0.00000000E+00
  0.00000000E+00  0.00000000E+00  0.00000000E+00
  0.00000000E+00  0.00000000E+00  0.00000000E+00
  0.00000000E+00  0.00000000E+00  0.00000000E+00
  0.00000000E+00  0.00000000E+00  0.00000000E+00
  0.00000000E+00  0.00000000E+00  0.00000000E+00
  0.00000000E+00  0.00000000E+00  0.00000000E+00
  0.00000000E+00  0.00000000E+00  0.00000000E+00
  0.00000000E+00  0.00000000E+00  0.00000000E+00
  0.00000000E+00  0.00000000E+00  0.00000000E+00
  0.00000000E+00  0.00000000E+00  0.00000000E+00
  0.00000000E+00  0.00000000E+00  0.00000000E+00
  0.00000000E+00  0.00000000E+00  0.00000000E+00
  0.00000000E+00  0.00000000E+00  0.00000000E+00
  0.00000000E+00  0.00000000E+00  0.00000000E+00
  0.00000000E+00  0.00000000E+00  0.00000000E+00
  0.00000000E+00  0.00000000E+00  0.00000000E+00
  0.00000000E+00  0.00000000E+00  0.00000000E+00
  0.00000000E+00  0.00000000E+00  0.00000000E+00
  0.00000000E+00  0.00000000E+00  0.00000000E+00
  0.00000000E+00  0.00000000E+00  0.00000000E+00
  0.00000000E+00  0.00000000E+00  0.00000000E+00
  0.00000000E+00  0.00000000E+00  0.00000000E+00
  0.00000000E+00  0.00000000E+00  0.00000000E+00
  0.00000000E+00  0.00000000E+00  0.00000000E+00
  0.00000000E+00  0.00000000E+00  0.00000000E+00
  0.00000000E+00  0.00000000E+00  0.00000000E+00
  0.00000000E+00  0.00000000E+00  0.00000000E+00
  0.00000000E+00  0.00000000E+00  0.00000000E+00
  0.00000000E+00  0.00000000E+00  0.00000000E+00
  0.00000000E+00  0.00000000E+00  0.00000000E+00
  0.00000000E+00  0.00000000E+00  0.00000000E+00
  0.00000000E+00  0.00000000E+00  0.00000000E+00
  0.00000000E+00  0.00000000E+00  0.00000000E+00
  0.00000000E+00  0.00000000E+00  0.00000000E+00
  0.00000000E+00  0.00000000E+00  0.00000000E+00
  0.00000000E+00  0.00000000E+00  0.00000000E+00
  0.00000000E+00  0.00000000E+00  0.00000000E+00
  0.00000000E+00  0.00000000E+00  0.00000000E+00
  0.00000000E+00  0.00000000E+00  0.00000000E+00
  0.00000000E+00  0.00000000E+00  0.00000000E+00
  0.00000000E+00  0.00000000E+00  0.00000000E+00
  0.00000000E+00  0.00000000E+00  0.00000000E+00
  0.00000000E+00  0.00000000E+00  0.00000000E+00
  0.00000000E+00  0.00000000E+00  0.00000000E+00
  0.00000000E+00  0.00000000E+00  0.00000000E+00
