Mg  O 
 1.0000000000000000
     8.4409846541513982    0.0000000000000000    0.0000000000000000
     0.0000000000000000    8.4409846541513982    0.0000000000000000
     0.0000000000000000    0.0000000000000000   26.3307384906135482
  Mg   O
  32  32
Selective dynamics
Direct
  0.0000000000000000  0.7500000000000001  0.3797842587500850   F   F   F
  0.2500000000000000  0.0000000000000001  0.3797842587500850   F   F   F
  0.0000000000000000  0.0000000000000001  0.4599280862500284   F   F   F
  0.2500000000000000  0.7500000000000001  0.4599280862500284   F   F   F
  0.0000000000000000  0.7500000000000001  0.5400719137499717   T   T   T
  0.2500000000000000  0.0000000000000001  0.5400719137499717   T   T   T
  0.0000000000000000  0.0000000000000001  0.6202157412499150   T   T   T
  0.2500000000000000  0.7500000000000001  0.6202157412499150   T   T   T
  0.0000000000000000  0.2500000000000001  0.3797842587500850   F   F   F
  0.2500000000000000  0.4999999999999999  0.3797842587500850   F   F   F
  0.0000000000000000  0.4999999999999999  0.4599280862500284   F   F   F
  0.2500000000000000  0.2500000000000001  0.4599280862500284   F   F   F
  0.0000000000000000  0.2500000000000001  0.5400719137499717   T   T   T
  0.2500000000000000  0.4999999999999999  0.5400719137499717   T   T   T
  0.0000000000000000  0.4999999999999999  0.6202157412499150   T   T   T
  0.2500000000000000  0.2500000000000001  0.6202157412499150   T   T   T
  0.4999999999999999  0.7500000000000001  0.3797842587500850   F   F   F
  0.7500000000000000  0.0000000000000001  0.3797842587500850   F   F   F
  0.4999999999999999  0.0000000000000001  0.4599280862500284   F   F   F
  0.7500000000000000  0.7500000000000001  0.4599280862500284   F   F   F
  0.4999999999999999  0.7500000000000001  0.5400719137499717   T   T   T
  0.7500000000000000  0.0000000000000001  0.5400719137499717   T   T   T
  0.4999999999999999  0.0000000000000001  0.6202157412499150   T   T   T
  0.7500000000000000  0.7500000000000001  0.6202157412499150   T   T   T
  0.4999999999999999  0.2500000000000001  0.3797842587500850   F   F   F
  0.7500000000000000  0.4999999999999999  0.3797842587500850   F   F   F
  0.4999999999999999  0.4999999999999999  0.4599280862500284   F   F   F
  0.7500000000000000  0.2500000000000001  0.4599280862500284   F   F   F
  0.4999999999999999  0.2500000000000001  0.5400719137499717   T   T   T
  0.7500000000000000  0.4999999999999999  0.5400719137499717   T   T   T
  0.4999999999999999  0.4999999999999999  0.6202157412499150   T   T   T
  0.7500000000000000  0.2500000000000001  0.6202157412499150   T   T   T
  0.0000000000000000  0.7500000000000001  0.4599280862500284   F   F   F
  0.2500000000000000  0.0000000000000001  0.4599280862500284   F   F   F
  0.0000000000000000  0.0000000000000001  0.3797842587500850   F   F   F
  0.2500000000000000  0.7500000000000001  0.3797842587500850   F   F   F
  0.0000000000000000  0.7500000000000001  0.6202157412499150   T   T   T
  0.2500000000000000  0.0000000000000001  0.6202157412499150   T   T   T
  0.0000000000000000  0.0000000000000001  0.5400719137499717   T   T   T
  0.2500000000000000  0.7500000000000001  0.5400719137499717   T   T   T
  0.0000000000000000  0.2500000000000001  0.4599280862500284   F   F   F
  0.2500000000000000  0.4999999999999999  0.4599280862500284   F   F   F
  0.0000000000000000  0.4999999999999999  0.3797842587500850   F   F   F
  0.2500000000000000  0.2500000000000001  0.3797842587500850   F   F   F
  0.0000000000000000  0.2500000000000001  0.6202157412499150   T   T   T
  0.2500000000000000  0.4999999999999999  0.6202157412499150   T   T   T
  0.0000000000000000  0.4999999999999999  0.5400719137499717   T   T   T
  0.2500000000000000  0.2500000000000001  0.5400719137499717   T   T   T
  0.4999999999999999  0.7500000000000001  0.4599280862500284   F   F   F
  0.7500000000000000  0.0000000000000001  0.4599280862500284   F   F   F
  0.4999999999999999  0.0000000000000001  0.3797842587500850   F   F   F
  0.7500000000000000  0.7500000000000001  0.3797842587500850   F   F   F
  0.4999999999999999  0.7500000000000001  0.6202157412499150   T   T   T
  0.7500000000000000  0.0000000000000001  0.6202157412499150   T   T   T
  0.4999999999999999  0.0000000000000001  0.5400719137499717   T   T   T
  0.7500000000000000  0.7500000000000001  0.5400719137499717   T   T   T
  0.4999999999999999  0.2500000000000001  0.4599280862500284   F   F   F
  0.7500000000000000  0.4999999999999999  0.4599280862500284   F   F   F
  0.4999999999999999  0.4999999999999999  0.3797842587500850   F   F   F
  0.7500000000000000  0.2500000000000001  0.3797842587500850   F   F   F
  0.4999999999999999  0.2500000000000001  0.6202157412499150   T   T   T
  0.7500000000000000  0.4999999999999999  0.6202157412499150   T   T   T
  0.4999999999999999  0.4999999999999999  0.5400719137499717   T   T   T
  0.7500000000000000  0.2500000000000001  0.5400719137499717   T   T   T
