 C  O Mg  O                             
   1.0000000000000000     
     8.4409846541513982    0.0000000000000000    0.0000000000000000
     0.0000000000000000    8.4409846541513982    0.0000000000000000
     0.0000000000000000    0.0000000000000000   25.5512308176892482
   C    O    Mg   O 
     1     1    48    48
Selective dynamics
Direct
  0.5000000000000000  0.5000000000000000  0.8055850626871484   T   T   T
  0.5000000000000000  0.5000000000000000  0.8504688551149939   T   T   T
  0.0000000000000000  0.7500000000000000  0.2935279342710828   F   F   F
  0.2500000000000000  0.0000000000000000  0.2935279342710828   F   F   F
  0.0000000000000000  0.0000000000000000  0.3761167605626525   F   F   F
  0.2500000000000000  0.7500000000000000  0.3761167605626525   F   F   F
 -0.0000000000000000  0.7499700026527552  0.4591825214046404   T   T   T
  0.2500299973472447  0.0000000000000000  0.4591825214046404   T   T   T
 -0.0000000000000000  0.0000000000000000  0.5421513264174288   T   T   T
  0.2500336930320868  0.7499663069679130  0.5421996587956368   T   T   T
 -0.0000000000000000  0.7499056745127209  0.6253151341608332   T   T   T
  0.2500943254872794  0.0000000000000000  0.6253151341608332   T   T   T
 -0.0000000000000000  0.0000000000000000  0.7076308666036244   T   T   T
  0.2498095229769489  0.7501904770230511  0.7076209912581838   T   T   T
  0.0000000000000000  0.2500000000000000  0.2935279342710828   F   F   F
  0.2500000000000000  0.5000000000000000  0.2935279342710828   F   F   F
  0.0000000000000000  0.5000000000000000  0.3761167605626525   F   F   F
  0.2500000000000000  0.2500000000000000  0.3761167605626525   F   F   F
 -0.0000000000000000  0.2500299973472447  0.4591825214046404   T   T   T
  0.2500714398645387  0.5000000000000000  0.4592072127614987   T   T   T
 -0.0000000000000000  0.5000000000000000  0.5422084128381298   T   T   T
  0.2500336930320868  0.2500336930320868  0.5421996587956368   T   T   T
 -0.0000000000000000  0.2500943254872794  0.6253151341608332   T   T   T
  0.2504031994816670  0.5000000000000000  0.6255219018036730   T   T   T
 -0.0000000000000000  0.5000000000000000  0.7076480139429485   T   T   T
  0.2498095229769489  0.2498095229769489  0.7076209912581838   T   T   T
  0.5000000000000000  0.7500000000000000  0.2935279342710828   F   F   F
  0.7500000000000000  0.0000000000000000  0.2935279342710828   F   F   F
  0.5000000000000000  0.0000000000000000  0.3761167605626525   F   F   F
  0.7500000000000000  0.7500000000000000  0.3761167605626525   F   F   F
  0.5000000000000000  0.7499285601354613  0.4592072127614987   T   T   T
  0.7499700026527552  0.0000000000000000  0.4591825214046404   T   T   T
  0.5000000000000000  0.0000000000000000  0.5422084128381298   T   T   T
  0.7499663069679130  0.7499663069679130  0.5421996587956368   T   T   T
  0.5000000000000000  0.7495968005183331  0.6255219018036730   T   T   T
  0.7499056745127209  0.0000000000000000  0.6253151341608332   T   T   T
  0.5000000000000000  0.0000000000000000  0.7076480139429485   T   T   T
  0.7501904770230511  0.7501904770230511  0.7076209912581838   T   T   T
  0.5000000000000000  0.2500000000000000  0.2935279342710828   F   F   F
  0.7500000000000000  0.5000000000000000  0.2935279342710828   F   F   F
  0.5000000000000000  0.5000000000000000  0.3761167605626525   F   F   F
  0.7500000000000000  0.2500000000000000  0.3761167605626525   F   F   F
  0.5000000000000000  0.2500714398645387  0.4592072127614987   T   T   T
  0.7499285601354613  0.5000000000000000  0.4592072127614987   T   T   T
  0.5000000000000000  0.5000000000000000  0.5422905799816590   T   T   T
  0.7499663069679130  0.2500336930320868  0.5421996587956368   T   T   T
  0.5000000000000000  0.2504031994816670  0.6255219018036730   T   T   T
  0.7495968005183331  0.5000000000000000  0.6255219018036730   T   T   T
  0.5000000000000000  0.5000000000000000  0.7094482711800661   T   T   T
  0.7501904770230511  0.2498095229769489  0.7076209912581838   T   T   T
  0.0000000000000000  0.7500000000000000  0.3761167605626525   F   F   F
  0.2500000000000000  0.0000000000000000  0.3761167605626525   F   F   F
  0.0000000000000000  0.0000000000000000  0.2935279342710828   F   F   F
  0.2500000000000000  0.7500000000000000  0.2935279342710828   F   F   F
 -0.0000000000000000  0.7499931044655234  0.5422190062123845   T   T   T
  0.2500068955344766  0.0000000000000000  0.5422190062123845   T   T   T
 -0.0000000000000000  0.0000000000000000  0.4591823737960166   T   T   T
  0.2500065731984743  0.7499934268015258  0.4591951830765425   T   T   T
 -0.0000000000000000  0.7502222316113372  0.7095731789585965   T   T   T
  0.2497777683886626  0.0000000000000000  0.7095731789585965   T   T   T
 -0.0000000000000000  0.0000000000000000  0.6250650122112305   T   T   T
  0.2499813144079822  0.7500186855920182  0.6251663591273989   T   T   T
  0.0000000000000000  0.2500000000000000  0.3761167605626525   F   F   F
  0.2500000000000000  0.5000000000000000  0.3761167605626525   F   F   F
  0.0000000000000000  0.5000000000000000  0.2935279342710828   F   F   F
  0.2500000000000000  0.2500000000000000  0.2935279342710828   F   F   F
 -0.0000000000000000  0.2500068955344766  0.5422190062123845   T   T   T
  0.2501087945358160  0.5000000000000000  0.5422890171730451   T   T   T
 -0.0000000000000000  0.5000000000000000  0.4591928173262395   T   T   T
  0.2500065731984743  0.2500065731984743  0.4591951830765425   T   T   T
 -0.0000000000000000  0.2497777683886626  0.7095731789585965   T   T   T
  0.2488279252650320  0.5000000000000000  0.7096239935252889   T   T   T
 -0.0000000000000000  0.5000000000000000  0.6250955052162324   T   T   T
  0.2499813144079822  0.2499813144079822  0.6251663591273989   T   T   T
  0.5000000000000000  0.7500000000000000  0.3761167605626525   F   F   F
  0.7500000000000000  0.0000000000000000  0.3761167605626525   F   F   F
  0.5000000000000000  0.0000000000000000  0.2935279342710828   F   F   F
  0.7500000000000000  0.7500000000000000  0.2935279342710828   F   F   F
  0.5000000000000000  0.7498912054641838  0.5422890171730451   T   T   T
  0.7499931044655234  0.0000000000000000  0.5422190062123845   T   T   T
  0.5000000000000000  0.0000000000000000  0.4591928173262395   T   T   T
  0.7499934268015258  0.7499934268015258  0.4591951830765425   T   T   T
  0.5000000000000000  0.7511720747349684  0.7096239935252889   T   T   T
  0.7502222316113372  0.0000000000000000  0.7095731789585965   T   T   T
  0.5000000000000000  0.0000000000000000  0.6250955052162324   T   T   T
  0.7500186855920182  0.7500186855920182  0.6251663591273989   T   T   T
  0.5000000000000000  0.2500000000000000  0.3761167605626525   F   F   F
  0.7500000000000000  0.5000000000000000  0.3761167605626525   F   F   F
  0.5000000000000000  0.5000000000000000  0.2935279342710828   F   F   F
  0.7500000000000000  0.2500000000000000  0.2935279342710828   F   F   F
  0.5000000000000000  0.2501087945358160  0.5422890171730451   T   T   T
  0.7498912054641838  0.5000000000000000  0.5422890171730451   T   T   T
  0.5000000000000000  0.5000000000000000  0.4592025644747145   T   T   T
  0.7499934268015258  0.2500065731984743  0.4591951830765425   T   T   T
  0.5000000000000000  0.2488279252650320  0.7096239935252889   T   T   T
  0.7511720747349684  0.5000000000000000  0.7096239935252889   T   T   T
  0.5000000000000000  0.5000000000000000  0.6255441503066175   T   T   T
  0.7500186855920182  0.2499813144079822  0.6251663591273989   T   T   T

  0.00000000E+00  0.00000000E+00  0.00000000E+00
  0.00000000E+00  0.00000000E+00  0.00000000E+00
  0.00000000E+00  0.00000000E+00  0.00000000E+00
  0.00000000E+00  0.00000000E+00  0.00000000E+00
  0.00000000E+00  0.00000000E+00  0.00000000E+00
  0.00000000E+00  0.00000000E+00  0.00000000E+00
  0.00000000E+00  0.00000000E+00  0.00000000E+00
  0.00000000E+00  0.00000000E+00  0.00000000E+00
  0.00000000E+00  0.00000000E+00  0.00000000E+00
  0.00000000E+00  0.00000000E+00  0.00000000E+00
  0.00000000E+00  0.00000000E+00  0.00000000E+00
  0.00000000E+00  0.00000000E+00  0.00000000E+00
  0.00000000E+00  0.00000000E+00  0.00000000E+00
  0.00000000E+00  0.00000000E+00  0.00000000E+00
  0.00000000E+00  0.00000000E+00  0.00000000E+00
  0.00000000E+00  0.00000000E+00  0.00000000E+00
  0.00000000E+00  0.00000000E+00  0.00000000E+00
  0.00000000E+00  0.00000000E+00  0.00000000E+00
  0.00000000E+00  0.00000000E+00  0.00000000E+00
  0.00000000E+00  0.00000000E+00  0.00000000E+00
  0.00000000E+00  0.00000000E+00  0.00000000E+00
  0.00000000E+00  0.00000000E+00  0.00000000E+00
  0.00000000E+00  0.00000000E+00  0.00000000E+00
  0.00000000E+00  0.00000000E+00  0.00000000E+00
  0.00000000E+00  0.00000000E+00  0.00000000E+00
  0.00000000E+00  0.00000000E+00  0.00000000E+00
  0.00000000E+00  0.00000000E+00  0.00000000E+00
  0.00000000E+00  0.00000000E+00  0.00000000E+00
  0.00000000E+00  0.00000000E+00  0.00000000E+00
  0.00000000E+00  0.00000000E+00  0.00000000E+00
  0.00000000E+00  0.00000000E+00  0.00000000E+00
  0.00000000E+00  0.00000000E+00  0.00000000E+00
  0.00000000E+00  0.00000000E+00  0.00000000E+00
  0.00000000E+00  0.00000000E+00  0.00000000E+00
  0.00000000E+00  0.00000000E+00  0.00000000E+00
  0.00000000E+00  0.00000000E+00  0.00000000E+00
  0.00000000E+00  0.00000000E+00  0.00000000E+00
  0.00000000E+00  0.00000000E+00  0.00000000E+00
  0.00000000E+00  0.00000000E+00  0.00000000E+00
  0.00000000E+00  0.00000000E+00  0.00000000E+00
  0.00000000E+00  0.00000000E+00  0.00000000E+00
  0.00000000E+00  0.00000000E+00  0.00000000E+00
  0.00000000E+00  0.00000000E+00  0.00000000E+00
  0.00000000E+00  0.00000000E+00  0.00000000E+00
  0.00000000E+00  0.00000000E+00  0.00000000E+00
  0.00000000E+00  0.00000000E+00  0.00000000E+00
  0.00000000E+00  0.00000000E+00  0.00000000E+00
  0.00000000E+00  0.00000000E+00  0.00000000E+00
  0.00000000E+00  0.00000000E+00  0.00000000E+00
  0.00000000E+00  0.00000000E+00  0.00000000E+00
  0.00000000E+00  0.00000000E+00  0.00000000E+00
  0.00000000E+00  0.00000000E+00  0.00000000E+00
  0.00000000E+00  0.00000000E+00  0.00000000E+00
  0.00000000E+00  0.00000000E+00  0.00000000E+00
  0.00000000E+00  0.00000000E+00  0.00000000E+00
  0.00000000E+00  0.00000000E+00  0.00000000E+00
  0.00000000E+00  0.00000000E+00  0.00000000E+00
  0.00000000E+00  0.00000000E+00  0.00000000E+00
  0.00000000E+00  0.00000000E+00  0.00000000E+00
  0.00000000E+00  0.00000000E+00  0.00000000E+00
  0.00000000E+00  0.00000000E+00  0.00000000E+00
  0.00000000E+00  0.00000000E+00  0.00000000E+00
  0.00000000E+00  0.00000000E+00  0.00000000E+00
  0.00000000E+00  0.00000000E+00  0.00000000E+00
  0.00000000E+00  0.00000000E+00  0.00000000E+00
  0.00000000E+00  0.00000000E+00  0.00000000E+00
  0.00000000E+00  0.00000000E+00  0.00000000E+00
  0.00000000E+00  0.00000000E+00  0.00000000E+00
  0.00000000E+00  0.00000000E+00  0.00000000E+00
  0.00000000E+00  0.00000000E+00  0.00000000E+00
  0.00000000E+00  0.00000000E+00  0.00000000E+00
  0.00000000E+00  0.00000000E+00  0.00000000E+00
  0.00000000E+00  0.00000000E+00  0.00000000E+00
  0.00000000E+00  0.00000000E+00  0.00000000E+00
  0.00000000E+00  0.00000000E+00  0.00000000E+00
  0.00000000E+00  0.00000000E+00  0.00000000E+00
  0.00000000E+00  0.00000000E+00  0.00000000E+00
  0.00000000E+00  0.00000000E+00  0.00000000E+00
  0.00000000E+00  0.00000000E+00  0.00000000E+00
  0.00000000E+00  0.00000000E+00  0.00000000E+00
  0.00000000E+00  0.00000000E+00  0.00000000E+00
  0.00000000E+00  0.00000000E+00  0.00000000E+00
  0.00000000E+00  0.00000000E+00  0.00000000E+00
  0.00000000E+00  0.00000000E+00  0.00000000E+00
  0.00000000E+00  0.00000000E+00  0.00000000E+00
  0.00000000E+00  0.00000000E+00  0.00000000E+00
  0.00000000E+00  0.00000000E+00  0.00000000E+00
  0.00000000E+00  0.00000000E+00  0.00000000E+00
  0.00000000E+00  0.00000000E+00  0.00000000E+00
  0.00000000E+00  0.00000000E+00  0.00000000E+00
  0.00000000E+00  0.00000000E+00  0.00000000E+00
  0.00000000E+00  0.00000000E+00  0.00000000E+00
  0.00000000E+00  0.00000000E+00  0.00000000E+00
  0.00000000E+00  0.00000000E+00  0.00000000E+00
  0.00000000E+00  0.00000000E+00  0.00000000E+00
  0.00000000E+00  0.00000000E+00  0.00000000E+00
  0.00000000E+00  0.00000000E+00  0.00000000E+00
  0.00000000E+00  0.00000000E+00  0.00000000E+00
