 C  O Mg  O 
 1.0000000000000000
     8.4409846541513982    0.0000000000000000    0.0000000000000000
     0.0000000000000000    8.4409846541513982    0.0000000000000000
     0.0000000000000000    0.0000000000000000   25.5512308176892482
   C   O  Mg   O
   1   1  48  48
Selective dynamics
Direct
  0.4999999999999999  0.4999999999999999  0.8004010046956626   T   T   T
  0.4999999999999999  0.4999999999999999  0.8452753744501154   T   T   T
  0.0000000000000000  0.7500000000000001  0.2935279342710846   F   F   F
  0.2500000000000000  0.0000000000000001  0.2935279342710846   F   F   F
  0.0000000000000000  0.0000000000000001  0.3761167605626507   F   F   F
  0.2500000000000000  0.7500000000000001  0.3761167605626507   F   F   F
  0.0000000000000000  0.7500000000000001  0.4587055868542169   T   T   T
  0.2500000000000000  0.0000000000000001  0.4587055868542169   T   T   T
  0.0000000000000000  0.0000000000000001  0.5412944131457831   T   T   T
  0.2500000000000000  0.7500000000000001  0.5412944131457831   T   T   T
  0.0000000000000000  0.7500000000000001  0.6238832394373491   T   T   T
  0.2500000000000000  0.0000000000000001  0.6238832394373491   T   T   T
  0.0000000000000000  0.0000000000000001  0.7064720657289154   T   T   T
  0.2500000000000000  0.7500000000000001  0.7064720657289154   T   T   T
  0.0000000000000000  0.2500000000000001  0.2935279342710846   F   F   F
  0.2500000000000000  0.4999999999999999  0.2935279342710846   F   F   F
  0.0000000000000000  0.4999999999999999  0.3761167605626507   F   F   F
  0.2500000000000000  0.2500000000000001  0.3761167605626507   F   F   F
  0.0000000000000000  0.2500000000000001  0.4587055868542169   T   T   T
  0.2500000000000000  0.4999999999999999  0.4587055868542169   T   T   T
  0.0000000000000000  0.4999999999999999  0.5412944131457831   T   T   T
  0.2500000000000000  0.2500000000000001  0.5412944131457831   T   T   T
  0.0000000000000000  0.2500000000000001  0.6238832394373491   T   T   T
  0.2500000000000000  0.4999999999999999  0.6238832394373491   T   T   T
  0.0000000000000000  0.4999999999999999  0.7064720657289154   T   T   T
  0.2500000000000000  0.2500000000000001  0.7064720657289154   T   T   T
  0.4999999999999999  0.7500000000000001  0.2935279342710846   F   F   F
  0.7500000000000000  0.0000000000000001  0.2935279342710846   F   F   F
  0.4999999999999999  0.0000000000000001  0.3761167605626507   F   F   F
  0.7500000000000000  0.7500000000000001  0.3761167605626507   F   F   F
  0.4999999999999999  0.7500000000000001  0.4587055868542169   T   T   T
  0.7500000000000000  0.0000000000000001  0.4587055868542169   T   T   T
  0.4999999999999999  0.0000000000000001  0.5412944131457831   T   T   T
  0.7500000000000000  0.7500000000000001  0.5412944131457831   T   T   T
  0.4999999999999999  0.7500000000000001  0.6238832394373491   T   T   T
  0.7500000000000000  0.0000000000000001  0.6238832394373491   T   T   T
  0.4999999999999999  0.0000000000000001  0.7064720657289154   T   T   T
  0.7500000000000000  0.7500000000000001  0.7064720657289154   T   T   T
  0.4999999999999999  0.2500000000000001  0.2935279342710846   F   F   F
  0.7500000000000000  0.4999999999999999  0.2935279342710846   F   F   F
  0.4999999999999999  0.4999999999999999  0.3761167605626507   F   F   F
  0.7500000000000000  0.2500000000000001  0.3761167605626507   F   F   F
  0.4999999999999999  0.2500000000000001  0.4587055868542169   T   T   T
  0.7500000000000000  0.4999999999999999  0.4587055868542169   T   T   T
  0.4999999999999999  0.4999999999999999  0.5412944131457831   T   T   T
  0.7500000000000000  0.2500000000000001  0.5412944131457831   T   T   T
  0.4999999999999999  0.2500000000000001  0.6238832394373491   T   T   T
  0.7500000000000000  0.4999999999999999  0.6238832394373491   T   T   T
  0.4999999999999999  0.4999999999999999  0.7064720657289154   T   T   T
  0.7500000000000000  0.2500000000000001  0.7064720657289154   T   T   T
  0.0000000000000000  0.7500000000000001  0.3761167605626507   F   F   F
  0.2500000000000000  0.0000000000000001  0.3761167605626507   F   F   F
  0.0000000000000000  0.0000000000000001  0.2935279342710846   F   F   F
  0.2500000000000000  0.7500000000000001  0.2935279342710846   F   F   F
  0.0000000000000000  0.7500000000000001  0.5412944131457831   T   T   T
  0.2500000000000000  0.0000000000000001  0.5412944131457831   T   T   T
  0.0000000000000000  0.0000000000000001  0.4587055868542169   T   T   T
  0.2500000000000000  0.7500000000000001  0.4587055868542169   T   T   T
  0.0000000000000000  0.7500000000000001  0.7064720657289154   T   T   T
  0.2500000000000000  0.0000000000000001  0.7064720657289154   T   T   T
  0.0000000000000000  0.0000000000000001  0.6238832394373491   T   T   T
  0.2500000000000000  0.7500000000000001  0.6238832394373491   T   T   T
  0.0000000000000000  0.2500000000000001  0.3761167605626507   F   F   F
  0.2500000000000000  0.4999999999999999  0.3761167605626507   F   F   F
  0.0000000000000000  0.4999999999999999  0.2935279342710846   F   F   F
  0.2500000000000000  0.2500000000000001  0.2935279342710846   F   F   F
  0.0000000000000000  0.2500000000000001  0.5412944131457831   T   T   T
  0.2500000000000000  0.4999999999999999  0.5412944131457831   T   T   T
  0.0000000000000000  0.4999999999999999  0.4587055868542169   T   T   T
  0.2500000000000000  0.2500000000000001  0.4587055868542169   T   T   T
  0.0000000000000000  0.2500000000000001  0.7064720657289154   T   T   T
  0.2500000000000000  0.4999999999999999  0.7064720657289154   T   T   T
  0.0000000000000000  0.4999999999999999  0.6238832394373491   T   T   T
  0.2500000000000000  0.2500000000000001  0.6238832394373491   T   T   T
  0.4999999999999999  0.7500000000000001  0.3761167605626507   F   F   F
  0.7500000000000000  0.0000000000000001  0.3761167605626507   F   F   F
  0.4999999999999999  0.0000000000000001  0.2935279342710846   F   F   F
  0.7500000000000000  0.7500000000000001  0.2935279342710846   F   F   F
  0.4999999999999999  0.7500000000000001  0.5412944131457831   T   T   T
  0.7500000000000000  0.0000000000000001  0.5412944131457831   T   T   T
  0.4999999999999999  0.0000000000000001  0.4587055868542169   T   T   T
  0.7500000000000000  0.7500000000000001  0.4587055868542169   T   T   T
  0.4999999999999999  0.7500000000000001  0.7064720657289154   T   T   T
  0.7500000000000000  0.0000000000000001  0.7064720657289154   T   T   T
  0.4999999999999999  0.0000000000000001  0.6238832394373491   T   T   T
  0.7500000000000000  0.7500000000000001  0.6238832394373491   T   T   T
  0.4999999999999999  0.2500000000000001  0.3761167605626507   F   F   F
  0.7500000000000000  0.4999999999999999  0.3761167605626507   F   F   F
  0.4999999999999999  0.4999999999999999  0.2935279342710846   F   F   F
  0.7500000000000000  0.2500000000000001  0.2935279342710846   F   F   F
  0.4999999999999999  0.2500000000000001  0.5412944131457831   T   T   T
  0.7500000000000000  0.4999999999999999  0.5412944131457831   T   T   T
  0.4999999999999999  0.4999999999999999  0.4587055868542169   T   T   T
  0.7500000000000000  0.2500000000000001  0.4587055868542169   T   T   T
  0.4999999999999999  0.2500000000000001  0.7064720657289154   T   T   T
  0.7500000000000000  0.4999999999999999  0.7064720657289154   T   T   T
  0.4999999999999999  0.4999999999999999  0.6238832394373491   T   T   T
  0.7500000000000000  0.2500000000000001  0.6238832394373491   T   T   T
