Mg  O                                   
   1.0000000000000000     
     8.4409846541513982    0.0000000000000000    0.0000000000000000
     0.0000000000000000    8.4409846541513982    0.0000000000000000
     0.0000000000000000    0.0000000000000000   21.3307384906135482
   Mg   O 
    32    32
Selective dynamics
Direct
  0.0000000000000000  0.7500000000000000  0.3516052668922072   F   F   F
  0.2500000000000000  0.0000000000000000  0.3516052668922072   F   F   F
  0.0000000000000000  0.0000000000000000  0.4505350889640667   F   F   F
  0.2500000000000000  0.7500000000000000  0.4505350889640667   F   F   F
 -0.0000000000000000  0.7500000000000000  0.5501884097655135   T   T   T
  0.2500000000000000  0.0000000000000000  0.5501884097655135   T   T   T
  0.0000000000000000 -0.0000000000000000  0.6488771469090074   T   T   T
  0.2500000000000000  0.7500000000000000  0.6488771469090074   T   T   T
  0.0000000000000000  0.2500000000000000  0.3516052668922072   F   F   F
  0.2500000000000000  0.5000000000000000  0.3516052668922072   F   F   F
  0.0000000000000000  0.5000000000000000  0.4505350889640667   F   F   F
  0.2500000000000000  0.2500000000000000  0.4505350889640667   F   F   F
  0.0000000000000000  0.2500000000000000  0.5501884097655135   T   T   T
  0.2500000000000000  0.5000000000000000  0.5501884097655135   T   T   T
  0.0000000000000000  0.5000000000000000  0.6488771469090074   T   T   T
  0.2500000000000000  0.2500000000000000  0.6488771469090074   T   T   T
  0.5000000000000000  0.7500000000000000  0.3516052668922072   F   F   F
  0.7500000000000000  0.0000000000000000  0.3516052668922072   F   F   F
  0.5000000000000000  0.0000000000000000  0.4505350889640667   F   F   F
  0.7500000000000000  0.7500000000000000  0.4505350889640667   F   F   F
  0.5000000000000000  0.7500000000000000  0.5501884097655135   T   T   T
  0.7500000000000000 -0.0000000000000000  0.5501884097655135   T   T   T
  0.5000000000000000  0.0000000000000000  0.6488771469090074   T   T   T
  0.7500000000000000  0.7500000000000000  0.6488771469090074   T   T   T
  0.5000000000000000  0.2500000000000000  0.3516052668922072   F   F   F
  0.7500000000000000  0.5000000000000000  0.3516052668922072   F   F   F
  0.5000000000000000  0.5000000000000000  0.4505350889640667   F   F   F
  0.7500000000000000  0.2500000000000000  0.4505350889640667   F   F   F
  0.5000000000000000  0.2500000000000000  0.5501884097655135   T   T   T
  0.7500000000000000  0.5000000000000000  0.5501884097655135   T   T   T
  0.5000000000000000  0.5000000000000000  0.6488771469090074   T   T   T
  0.7500000000000000  0.2500000000000000  0.6488771469090074   T   T   T
  0.0000000000000000  0.7500000000000000  0.4505350889640667   F   F   F
  0.2500000000000000  0.0000000000000000  0.4505350889640667   F   F   F
  0.0000000000000000  0.0000000000000000  0.3516052668922072   F   F   F
  0.2500000000000000  0.7500000000000000  0.3516052668922072   F   F   F
 -0.0000000000000000  0.7500000000000000  0.6510223391968600   T   T   T
  0.2500000000000000 -0.0000000000000000  0.6510223391968600   T   T   T
 -0.0000000000000000 -0.0000000000000000  0.5499031767111892   T   T   T
  0.2500000000000000  0.7500000000000000  0.5499031767111892   T   T   T
  0.0000000000000000  0.2500000000000000  0.4505350889640667   F   F   F
  0.2500000000000000  0.5000000000000000  0.4505350889640667   F   F   F
  0.0000000000000000  0.5000000000000000  0.3516052668922072   F   F   F
  0.2500000000000000  0.2500000000000000  0.3516052668922072   F   F   F
  0.0000000000000000  0.2500000000000000  0.6510223391968600   T   T   T
  0.2500000000000000  0.5000000000000000  0.6510223391968600   T   T   T
 -0.0000000000000000  0.5000000000000000  0.5499031767111892   T   T   T
  0.2500000000000000  0.2500000000000000  0.5499031767111892   T   T   T
  0.5000000000000000  0.7500000000000000  0.4505350889640667   F   F   F
  0.7500000000000000  0.0000000000000000  0.4505350889640667   F   F   F
  0.5000000000000000  0.0000000000000000  0.3516052668922072   F   F   F
  0.7500000000000000  0.7500000000000000  0.3516052668922072   F   F   F
  0.5000000000000000  0.7500000000000000  0.6510223391968600   T   T   T
  0.7500000000000000 -0.0000000000000000  0.6510223391968600   T   T   T
  0.5000000000000000  0.0000000000000000  0.5499031767111892   T   T   T
  0.7500000000000000  0.7500000000000000  0.5499031767111892   T   T   T
  0.5000000000000000  0.2500000000000000  0.4505350889640667   F   F   F
  0.7500000000000000  0.5000000000000000  0.4505350889640667   F   F   F
  0.5000000000000000  0.5000000000000000  0.3516052668922072   F   F   F
  0.7500000000000000  0.2500000000000000  0.3516052668922072   F   F   F
  0.5000000000000000  0.2500000000000000  0.6510223391968600   T   T   T
  0.7500000000000000  0.5000000000000000  0.6510223391968600   T   T   T
  0.5000000000000000  0.5000000000000000  0.5499031767111892   T   T   T
  0.7500000000000000  0.2500000000000000  0.5499031767111892   T   T   T

  0.00000000E+00  0.00000000E+00  0.00000000E+00
  0.00000000E+00  0.00000000E+00  0.00000000E+00
  0.00000000E+00  0.00000000E+00  0.00000000E+00
  0.00000000E+00  0.00000000E+00  0.00000000E+00
  0.00000000E+00  0.00000000E+00  0.00000000E+00
  0.00000000E+00  0.00000000E+00  0.00000000E+00
  0.00000000E+00  0.00000000E+00  0.00000000E+00
  0.00000000E+00  0.00000000E+00  0.00000000E+00
  0.00000000E+00  0.00000000E+00  0.00000000E+00
  0.00000000E+00  0.00000000E+00  0.00000000E+00
  0.00000000E+00  0.00000000E+00  0.00000000E+00
  0.00000000E+00  0.00000000E+00  0.00000000E+00
  0.00000000E+00  0.00000000E+00  0.00000000E+00
  0.00000000E+00  0.00000000E+00  0.00000000E+00
  0.00000000E+00  0.00000000E+00  0.00000000E+00
  0.00000000E+00  0.00000000E+00  0.00000000E+00
  0.00000000E+00  0.00000000E+00  0.00000000E+00
  0.00000000E+00  0.00000000E+00  0.00000000E+00
  0.00000000E+00  0.00000000E+00  0.00000000E+00
  0.00000000E+00  0.00000000E+00  0.00000000E+00
  0.00000000E+00  0.00000000E+00  0.00000000E+00
  0.00000000E+00  0.00000000E+00  0.00000000E+00
  0.00000000E+00  0.00000000E+00  0.00000000E+00
  0.00000000E+00  0.00000000E+00  0.00000000E+00
  0.00000000E+00  0.00000000E+00  0.00000000E+00
  0.00000000E+00  0.00000000E+00  0.00000000E+00
  0.00000000E+00  0.00000000E+00  0.00000000E+00
  0.00000000E+00  0.00000000E+00  0.00000000E+00
  0.00000000E+00  0.00000000E+00  0.00000000E+00
  0.00000000E+00  0.00000000E+00  0.00000000E+00
  0.00000000E+00  0.00000000E+00  0.00000000E+00
  0.00000000E+00  0.00000000E+00  0.00000000E+00
  0.00000000E+00  0.00000000E+00  0.00000000E+00
  0.00000000E+00  0.00000000E+00  0.00000000E+00
  0.00000000E+00  0.00000000E+00  0.00000000E+00
  0.00000000E+00  0.00000000E+00  0.00000000E+00
  0.00000000E+00  0.00000000E+00  0.00000000E+00
  0.00000000E+00  0.00000000E+00  0.00000000E+00
  0.00000000E+00  0.00000000E+00  0.00000000E+00
  0.00000000E+00  0.00000000E+00  0.00000000E+00
  0.00000000E+00  0.00000000E+00  0.00000000E+00
  0.00000000E+00  0.00000000E+00  0.00000000E+00
  0.00000000E+00  0.00000000E+00  0.00000000E+00
  0.00000000E+00  0.00000000E+00  0.00000000E+00
  0.00000000E+00  0.00000000E+00  0.00000000E+00
  0.00000000E+00  0.00000000E+00  0.00000000E+00
  0.00000000E+00  0.00000000E+00  0.00000000E+00
  0.00000000E+00  0.00000000E+00  0.00000000E+00
  0.00000000E+00  0.00000000E+00  0.00000000E+00
  0.00000000E+00  0.00000000E+00  0.00000000E+00
  0.00000000E+00  0.00000000E+00  0.00000000E+00
  0.00000000E+00  0.00000000E+00  0.00000000E+00
  0.00000000E+00  0.00000000E+00  0.00000000E+00
  0.00000000E+00  0.00000000E+00  0.00000000E+00
  0.00000000E+00  0.00000000E+00  0.00000000E+00
  0.00000000E+00  0.00000000E+00  0.00000000E+00
  0.00000000E+00  0.00000000E+00  0.00000000E+00
  0.00000000E+00  0.00000000E+00  0.00000000E+00
  0.00000000E+00  0.00000000E+00  0.00000000E+00
  0.00000000E+00  0.00000000E+00  0.00000000E+00
  0.00000000E+00  0.00000000E+00  0.00000000E+00
  0.00000000E+00  0.00000000E+00  0.00000000E+00
  0.00000000E+00  0.00000000E+00  0.00000000E+00
  0.00000000E+00  0.00000000E+00  0.00000000E+00
