Mg  O                                   
   1.0000000000000000     
    12.6614769812270964    0.0000000000000000    0.0000000000000000
     0.0000000000000000   12.6614769812270964    0.0000000000000000
     0.0000000000000000    0.0000000000000000   21.3307384906135482
   Mg   O 
    72    72
Selective dynamics
Direct
  0.1666666666666643  0.0000000000000000  0.3516052668922072   F   F   F
  0.3333333333333357  0.1666666666666643  0.3516052668922072   F   F   F
  0.1666666666666643  0.1666666666666643  0.4505350889640667   F   F   F
  0.3333333333333357  0.0000000000000000  0.4505350889640667   F   F   F
  0.1666666666666643  0.0000000000000000  0.5502006232287956   T   T   T
  0.3333333333333357  0.1666666666666643  0.5502006232287956   T   T   T
  0.1666666666666643  0.1666666666666643  0.6488879031557165   T   T   T
  0.3333333333333357  0.0000000000000000  0.6488879031557165   T   T   T
  0.1666666666666643  0.3333333333333357  0.3516052668922072   F   F   F
  0.3333333333333357  0.5000000000000000  0.3516052668922072   F   F   F
  0.1666666666666643  0.5000000000000000  0.4505350889640667   F   F   F
  0.3333333333333357  0.3333333333333357  0.4505350889640667   F   F   F
  0.1666666666666643  0.3333333333333357  0.5502006232287956   T   T   T
  0.3333333333333357  0.5000000000000000  0.5502006232287956   T   T   T
  0.1666666666666643  0.5000000000000000  0.6488879031557165   T   T   T
  0.3333333333333357  0.3333333333333357  0.6488879031557165   T   T   T
  0.1666666666666643  0.6666666666666643  0.3516052668922072   F   F   F
  0.3333333333333357  0.8333333333333357  0.3516052668922072   F   F   F
  0.1666666666666643  0.8333333333333357  0.4505350889640667   F   F   F
  0.3333333333333357  0.6666666666666643  0.4505350889640667   F   F   F
  0.1666666666666643  0.6666666666666643  0.5502006232287956   T   T   T
  0.3333333333333357  0.8333333333333357  0.5502006232287956   T   T   T
  0.1666666666666643  0.8333333333333357  0.6488879031557165   T   T   T
  0.3333333333333357  0.6666666666666643  0.6488879031557165   T   T   T
  0.5000000000000000  0.0000000000000000  0.3516052668922072   F   F   F
  0.6666666666666643  0.1666666666666643  0.3516052668922072   F   F   F
  0.5000000000000000  0.1666666666666643  0.4505350889640667   F   F   F
  0.6666666666666643  0.0000000000000000  0.4505350889640667   F   F   F
  0.5000000000000000  0.0000000000000000  0.5502006232287956   T   T   T
  0.6666666666666643  0.1666666666666643  0.5502006232287956   T   T   T
  0.5000000000000000  0.1666666666666643  0.6488879031557165   T   T   T
  0.6666666666666643  0.0000000000000000  0.6488879031557165   T   T   T
  0.5000000000000000  0.3333333333333357  0.3516052668922072   F   F   F
  0.6666666666666643  0.5000000000000000  0.3516052668922072   F   F   F
  0.5000000000000000  0.5000000000000000  0.4505350889640667   F   F   F
  0.6666666666666643  0.3333333333333357  0.4505350889640667   F   F   F
  0.5000000000000000  0.3333333333333357  0.5502006232287956   T   T   T
  0.6666666666666643  0.5000000000000000  0.5502006232287956   T   T   T
  0.5000000000000000  0.5000000000000000  0.6488879031557165   T   T   T
  0.6666666666666643  0.3333333333333357  0.6488879031557165   T   T   T
  0.5000000000000000  0.6666666666666643  0.3516052668922072   F   F   F
  0.6666666666666643  0.8333333333333357  0.3516052668922072   F   F   F
  0.5000000000000000  0.8333333333333357  0.4505350889640667   F   F   F
  0.6666666666666643  0.6666666666666643  0.4505350889640667   F   F   F
  0.5000000000000000  0.6666666666666643  0.5502006232287956   T   T   T
  0.6666666666666643  0.8333333333333357  0.5502006232287956   T   T   T
  0.5000000000000000  0.8333333333333357  0.6488879031557165   T   T   T
  0.6666666666666643  0.6666666666666643  0.6488879031557165   T   T   T
  0.8333333333333357  0.0000000000000000  0.3516052668922072   F   F   F
  0.0000000000000000  0.1666666666666643  0.3516052668922072   F   F   F
  0.8333333333333357  0.1666666666666643  0.4505350889640667   F   F   F
  0.0000000000000000  0.0000000000000000  0.4505350889640667   F   F   F
  0.8333333333333357  0.0000000000000000  0.5502006232287956   T   T   T
  0.0000000000000000  0.1666666666666643  0.5502006232287956   T   T   T
  0.8333333333333357  0.1666666666666643  0.6488879031557165   T   T   T
 -0.0000000000000000  0.0000000000000000  0.6488879031557165   T   T   T
  0.8333333333333357  0.3333333333333357  0.3516052668922072   F   F   F
  0.0000000000000000  0.5000000000000000  0.3516052668922072   F   F   F
  0.8333333333333357  0.5000000000000000  0.4505350889640667   F   F   F
  0.0000000000000000  0.3333333333333357  0.4505350889640667   F   F   F
  0.8333333333333357  0.3333333333333357  0.5502006232287956   T   T   T
  0.0000000000000000  0.5000000000000000  0.5502006232287956   T   T   T
  0.8333333333333357  0.5000000000000000  0.6488879031557165   T   T   T
  0.0000000000000000  0.3333333333333357  0.6488879031557165   T   T   T
  0.8333333333333357  0.6666666666666643  0.3516052668922072   F   F   F
  0.0000000000000000  0.8333333333333357  0.3516052668922072   F   F   F
  0.8333333333333357  0.8333333333333357  0.4505350889640667   F   F   F
  0.0000000000000000  0.6666666666666643  0.4505350889640667   F   F   F
  0.8333333333333357  0.6666666666666643  0.5502006232287956   T   T   T
 -0.0000000000000000  0.8333333333333357  0.5502006232287956   T   T   T
  0.8333333333333357  0.8333333333333357  0.6488879031557165   T   T   T
 -0.0000000000000000  0.6666666666666643  0.6488879031557165   T   T   T
  0.1666666666666643  0.0000000000000000  0.4505350889640667   F   F   F
  0.3333333333333357  0.1666666666666643  0.4505350889640667   F   F   F
  0.1666666666666643  0.1666666666666643  0.3516052668922072   F   F   F
  0.3333333333333357  0.0000000000000000  0.3516052668922072   F   F   F
  0.1666666666666643  0.0000000000000000  0.6510358510414791   T   T   T
  0.3333333333333357  0.1666666666666643  0.6510358510414791   T   T   T
  0.1666666666666643  0.1666666666666643  0.5499146151798807   T   T   T
  0.3333333333333357 -0.0000000000000000  0.5499146151798807   T   T   T
  0.1666666666666643  0.3333333333333357  0.4505350889640667   F   F   F
  0.3333333333333357  0.5000000000000000  0.4505350889640667   F   F   F
  0.1666666666666643  0.5000000000000000  0.3516052668922072   F   F   F
  0.3333333333333357  0.3333333333333357  0.3516052668922072   F   F   F
  0.1666666666666643  0.3333333333333357  0.6510358510414791   T   T   T
  0.3333333333333357  0.5000000000000000  0.6510358510414791   T   T   T
  0.1666666666666643  0.5000000000000000  0.5499146151798807   T   T   T
  0.3333333333333357  0.3333333333333357  0.5499146151798807   T   T   T
  0.1666666666666643  0.6666666666666643  0.4505350889640667   F   F   F
  0.3333333333333357  0.8333333333333357  0.4505350889640667   F   F   F
  0.1666666666666643  0.8333333333333357  0.3516052668922072   F   F   F
  0.3333333333333357  0.6666666666666643  0.3516052668922072   F   F   F
  0.1666666666666643  0.6666666666666643  0.6510358510414791   T   T   T
  0.3333333333333357  0.8333333333333357  0.6510358510414791   T   T   T
  0.1666666666666643  0.8333333333333357  0.5499146151798807   T   T   T
  0.3333333333333357  0.6666666666666643  0.5499146151798807   T   T   T
  0.5000000000000000  0.0000000000000000  0.4505350889640667   F   F   F
  0.6666666666666643  0.1666666666666643  0.4505350889640667   F   F   F
  0.5000000000000000  0.1666666666666643  0.3516052668922072   F   F   F
  0.6666666666666643  0.0000000000000000  0.3516052668922072   F   F   F
  0.5000000000000000 -0.0000000000000000  0.6510358510414791   T   T   T
  0.6666666666666643  0.1666666666666643  0.6510358510414791   T   T   T
  0.5000000000000000  0.1666666666666643  0.5499146151798807   T   T   T
  0.6666666666666643 -0.0000000000000000  0.5499146151798807   T   T   T
  0.5000000000000000  0.3333333333333357  0.4505350889640667   F   F   F
  0.6666666666666643  0.5000000000000000  0.4505350889640667   F   F   F
  0.5000000000000000  0.5000000000000000  0.3516052668922072   F   F   F
  0.6666666666666643  0.3333333333333357  0.3516052668922072   F   F   F
  0.5000000000000000  0.3333333333333357  0.6510358510414791   T   T   T
  0.6666666666666643  0.5000000000000000  0.6510358510414791   T   T   T
  0.5000000000000000  0.5000000000000000  0.5499146151798807   T   T   T
  0.6666666666666643  0.3333333333333357  0.5499146151798807   T   T   T
  0.5000000000000000  0.6666666666666643  0.4505350889640667   F   F   F
  0.6666666666666643  0.8333333333333357  0.4505350889640667   F   F   F
  0.5000000000000000  0.8333333333333357  0.3516052668922072   F   F   F
  0.6666666666666643  0.6666666666666643  0.3516052668922072   F   F   F
  0.5000000000000000  0.6666666666666643  0.6510358510414791   T   T   T
  0.6666666666666643  0.8333333333333357  0.6510358510414791   T   T   T
  0.5000000000000000  0.8333333333333357  0.5499146151798807   T   T   T
  0.6666666666666643  0.6666666666666643  0.5499146151798807   T   T   T
  0.8333333333333357  0.0000000000000000  0.4505350889640667   F   F   F
  0.0000000000000000  0.1666666666666643  0.4505350889640667   F   F   F
  0.8333333333333357  0.1666666666666643  0.3516052668922072   F   F   F
  0.0000000000000000  0.0000000000000000  0.3516052668922072   F   F   F
  0.8333333333333357  0.0000000000000000  0.6510358510414791   T   T   T
  0.0000000000000000  0.1666666666666643  0.6510358510414791   T   T   T
  0.8333333333333357  0.1666666666666643  0.5499146151798807   T   T   T
 -0.0000000000000000  0.0000000000000000  0.5499146151798807   T   T   T
  0.8333333333333357  0.3333333333333357  0.4505350889640667   F   F   F
  0.0000000000000000  0.5000000000000000  0.4505350889640667   F   F   F
  0.8333333333333357  0.5000000000000000  0.3516052668922072   F   F   F
  0.0000000000000000  0.3333333333333357  0.3516052668922072   F   F   F
  0.8333333333333357  0.3333333333333357  0.6510358510414791   T   T   T
  0.0000000000000000  0.5000000000000000  0.6510358510414791   T   T   T
  0.8333333333333357  0.5000000000000000  0.5499146151798807   T   T   T
 -0.0000000000000000  0.3333333333333357  0.5499146151798807   T   T   T
  0.8333333333333357  0.6666666666666643  0.4505350889640667   F   F   F
  0.0000000000000000  0.8333333333333357  0.4505350889640667   F   F   F
  0.8333333333333357  0.8333333333333357  0.3516052668922072   F   F   F
  0.0000000000000000  0.6666666666666643  0.3516052668922072   F   F   F
  0.8333333333333357  0.6666666666666643  0.6510358510414791   T   T   T
  0.0000000000000000  0.8333333333333357  0.6510358510414791   T   T   T
  0.8333333333333357  0.8333333333333357  0.5499146151798807   T   T   T
  0.0000000000000000  0.6666666666666643  0.5499146151798807   T   T   T

  0.00000000E+00  0.00000000E+00  0.00000000E+00
  0.00000000E+00  0.00000000E+00  0.00000000E+00
  0.00000000E+00  0.00000000E+00  0.00000000E+00
  0.00000000E+00  0.00000000E+00  0.00000000E+00
  0.00000000E+00  0.00000000E+00  0.00000000E+00
  0.00000000E+00  0.00000000E+00  0.00000000E+00
  0.00000000E+00  0.00000000E+00  0.00000000E+00
  0.00000000E+00  0.00000000E+00  0.00000000E+00
  0.00000000E+00  0.00000000E+00  0.00000000E+00
  0.00000000E+00  0.00000000E+00  0.00000000E+00
  0.00000000E+00  0.00000000E+00  0.00000000E+00
  0.00000000E+00  0.00000000E+00  0.00000000E+00
  0.00000000E+00  0.00000000E+00  0.00000000E+00
  0.00000000E+00  0.00000000E+00  0.00000000E+00
  0.00000000E+00  0.00000000E+00  0.00000000E+00
  0.00000000E+00  0.00000000E+00  0.00000000E+00
  0.00000000E+00  0.00000000E+00  0.00000000E+00
  0.00000000E+00  0.00000000E+00  0.00000000E+00
  0.00000000E+00  0.00000000E+00  0.00000000E+00
  0.00000000E+00  0.00000000E+00  0.00000000E+00
  0.00000000E+00  0.00000000E+00  0.00000000E+00
  0.00000000E+00  0.00000000E+00  0.00000000E+00
  0.00000000E+00  0.00000000E+00  0.00000000E+00
  0.00000000E+00  0.00000000E+00  0.00000000E+00
  0.00000000E+00  0.00000000E+00  0.00000000E+00
  0.00000000E+00  0.00000000E+00  0.00000000E+00
  0.00000000E+00  0.00000000E+00  0.00000000E+00
  0.00000000E+00  0.00000000E+00  0.00000000E+00
  0.00000000E+00  0.00000000E+00  0.00000000E+00
  0.00000000E+00  0.00000000E+00  0.00000000E+00
  0.00000000E+00  0.00000000E+00  0.00000000E+00
  0.00000000E+00  0.00000000E+00  0.00000000E+00
  0.00000000E+00  0.00000000E+00  0.00000000E+00
  0.00000000E+00  0.00000000E+00  0.00000000E+00
  0.00000000E+00  0.00000000E+00  0.00000000E+00
  0.00000000E+00  0.00000000E+00  0.00000000E+00
  0.00000000E+00  0.00000000E+00  0.00000000E+00
  0.00000000E+00  0.00000000E+00  0.00000000E+00
  0.00000000E+00  0.00000000E+00  0.00000000E+00
  0.00000000E+00  0.00000000E+00  0.00000000E+00
  0.00000000E+00  0.00000000E+00  0.00000000E+00
  0.00000000E+00  0.00000000E+00  0.00000000E+00
  0.00000000E+00  0.00000000E+00  0.00000000E+00
  0.00000000E+00  0.00000000E+00  0.00000000E+00
  0.00000000E+00  0.00000000E+00  0.00000000E+00
  0.00000000E+00  0.00000000E+00  0.00000000E+00
  0.00000000E+00  0.00000000E+00  0.00000000E+00
  0.00000000E+00  0.00000000E+00  0.00000000E+00
  0.00000000E+00  0.00000000E+00  0.00000000E+00
  0.00000000E+00  0.00000000E+00  0.00000000E+00
  0.00000000E+00  0.00000000E+00  0.00000000E+00
  0.00000000E+00  0.00000000E+00  0.00000000E+00
  0.00000000E+00  0.00000000E+00  0.00000000E+00
  0.00000000E+00  0.00000000E+00  0.00000000E+00
  0.00000000E+00  0.00000000E+00  0.00000000E+00
  0.00000000E+00  0.00000000E+00  0.00000000E+00
  0.00000000E+00  0.00000000E+00  0.00000000E+00
  0.00000000E+00  0.00000000E+00  0.00000000E+00
  0.00000000E+00  0.00000000E+00  0.00000000E+00
  0.00000000E+00  0.00000000E+00  0.00000000E+00
  0.00000000E+00  0.00000000E+00  0.00000000E+00
  0.00000000E+00  0.00000000E+00  0.00000000E+00
  0.00000000E+00  0.00000000E+00  0.00000000E+00
  0.00000000E+00  0.00000000E+00  0.00000000E+00
  0.00000000E+00  0.00000000E+00  0.00000000E+00
  0.00000000E+00  0.00000000E+00  0.00000000E+00
  0.00000000E+00  0.00000000E+00  0.00000000E+00
  0.00000000E+00  0.00000000E+00  0.00000000E+00
  0.00000000E+00  0.00000000E+00  0.00000000E+00
  0.00000000E+00  0.00000000E+00  0.00000000E+00
  0.00000000E+00  0.00000000E+00  0.00000000E+00
  0.00000000E+00  0.00000000E+00  0.00000000E+00
  0.00000000E+00  0.00000000E+00  0.00000000E+00
  0.00000000E+00  0.00000000E+00  0.00000000E+00
  0.00000000E+00  0.00000000E+00  0.00000000E+00
  0.00000000E+00  0.00000000E+00  0.00000000E+00
  0.00000000E+00  0.00000000E+00  0.00000000E+00
  0.00000000E+00  0.00000000E+00  0.00000000E+00
  0.00000000E+00  0.00000000E+00  0.00000000E+00
  0.00000000E+00  0.00000000E+00  0.00000000E+00
  0.00000000E+00  0.00000000E+00  0.00000000E+00
  0.00000000E+00  0.00000000E+00  0.00000000E+00
  0.00000000E+00  0.00000000E+00  0.00000000E+00
  0.00000000E+00  0.00000000E+00  0.00000000E+00
  0.00000000E+00  0.00000000E+00  0.00000000E+00
  0.00000000E+00  0.00000000E+00  0.00000000E+00
  0.00000000E+00  0.00000000E+00  0.00000000E+00
  0.00000000E+00  0.00000000E+00  0.00000000E+00
  0.00000000E+00  0.00000000E+00  0.00000000E+00
  0.00000000E+00  0.00000000E+00  0.00000000E+00
  0.00000000E+00  0.00000000E+00  0.00000000E+00
  0.00000000E+00  0.00000000E+00  0.00000000E+00
  0.00000000E+00  0.00000000E+00  0.00000000E+00
  0.00000000E+00  0.00000000E+00  0.00000000E+00
  0.00000000E+00  0.00000000E+00  0.00000000E+00
  0.00000000E+00  0.00000000E+00  0.00000000E+00
  0.00000000E+00  0.00000000E+00  0.00000000E+00
  0.00000000E+00  0.00000000E+00  0.00000000E+00
  0.00000000E+00  0.00000000E+00  0.00000000E+00
  0.00000000E+00  0.00000000E+00  0.00000000E+00
  0.00000000E+00  0.00000000E+00  0.00000000E+00
  0.00000000E+00  0.00000000E+00  0.00000000E+00
  0.00000000E+00  0.00000000E+00  0.00000000E+00
  0.00000000E+00  0.00000000E+00  0.00000000E+00
  0.00000000E+00  0.00000000E+00  0.00000000E+00
  0.00000000E+00  0.00000000E+00  0.00000000E+00
  0.00000000E+00  0.00000000E+00  0.00000000E+00
  0.00000000E+00  0.00000000E+00  0.00000000E+00
  0.00000000E+00  0.00000000E+00  0.00000000E+00
  0.00000000E+00  0.00000000E+00  0.00000000E+00
  0.00000000E+00  0.00000000E+00  0.00000000E+00
  0.00000000E+00  0.00000000E+00  0.00000000E+00
  0.00000000E+00  0.00000000E+00  0.00000000E+00
  0.00000000E+00  0.00000000E+00  0.00000000E+00
  0.00000000E+00  0.00000000E+00  0.00000000E+00
  0.00000000E+00  0.00000000E+00  0.00000000E+00
  0.00000000E+00  0.00000000E+00  0.00000000E+00
  0.00000000E+00  0.00000000E+00  0.00000000E+00
  0.00000000E+00  0.00000000E+00  0.00000000E+00
  0.00000000E+00  0.00000000E+00  0.00000000E+00
  0.00000000E+00  0.00000000E+00  0.00000000E+00
  0.00000000E+00  0.00000000E+00  0.00000000E+00
  0.00000000E+00  0.00000000E+00  0.00000000E+00
  0.00000000E+00  0.00000000E+00  0.00000000E+00
  0.00000000E+00  0.00000000E+00  0.00000000E+00
  0.00000000E+00  0.00000000E+00  0.00000000E+00
  0.00000000E+00  0.00000000E+00  0.00000000E+00
  0.00000000E+00  0.00000000E+00  0.00000000E+00
  0.00000000E+00  0.00000000E+00  0.00000000E+00
  0.00000000E+00  0.00000000E+00  0.00000000E+00
  0.00000000E+00  0.00000000E+00  0.00000000E+00
  0.00000000E+00  0.00000000E+00  0.00000000E+00
  0.00000000E+00  0.00000000E+00  0.00000000E+00
  0.00000000E+00  0.00000000E+00  0.00000000E+00
  0.00000000E+00  0.00000000E+00  0.00000000E+00
  0.00000000E+00  0.00000000E+00  0.00000000E+00
  0.00000000E+00  0.00000000E+00  0.00000000E+00
  0.00000000E+00  0.00000000E+00  0.00000000E+00
  0.00000000E+00  0.00000000E+00  0.00000000E+00
  0.00000000E+00  0.00000000E+00  0.00000000E+00
  0.00000000E+00  0.00000000E+00  0.00000000E+00
  0.00000000E+00  0.00000000E+00  0.00000000E+00
  0.00000000E+00  0.00000000E+00  0.00000000E+00
  0.00000000E+00  0.00000000E+00  0.00000000E+00
