Mg  O 
 1.0000000000000000
    12.6614769812270964    0.0000000000000000    0.0000000000000000
     0.0000000000000000   12.6614769812270964    0.0000000000000000
     0.0000000000000000    0.0000000000000000   21.3307384906135482
  Mg   O
  72  72
Selective dynamics
Direct
  0.1666666666666666  0.0000000000000000  0.3516052668922047   F   F   F
  0.3333333333333333  0.1666666666666666  0.3516052668922047   F   F   F
  0.1666666666666666  0.1666666666666666  0.4505350889640682   F   F   F
  0.3333333333333333  0.0000000000000000  0.4505350889640682   F   F   F
  0.1666666666666666  0.0000000000000000  0.5494649110359319   T   T   T
  0.3333333333333333  0.1666666666666666  0.5494649110359319   T   T   T
  0.1666666666666666  0.1666666666666666  0.6483947331077954   T   T   T
  0.3333333333333333  0.0000000000000000  0.6483947331077954   T   T   T
  0.1666666666666666  0.3333333333333333  0.3516052668922047   F   F   F
  0.3333333333333333  0.4999999999999999  0.3516052668922047   F   F   F
  0.1666666666666666  0.4999999999999999  0.4505350889640682   F   F   F
  0.3333333333333333  0.3333333333333333  0.4505350889640682   F   F   F
  0.1666666666666666  0.3333333333333333  0.5494649110359319   T   T   T
  0.3333333333333333  0.4999999999999999  0.5494649110359319   T   T   T
  0.1666666666666666  0.4999999999999999  0.6483947331077954   T   T   T
  0.3333333333333333  0.3333333333333333  0.6483947331077954   T   T   T
  0.1666666666666666  0.6666666666666665  0.3516052668922047   F   F   F
  0.3333333333333333  0.8333333333333334  0.3516052668922047   F   F   F
  0.1666666666666666  0.8333333333333334  0.4505350889640682   F   F   F
  0.3333333333333333  0.6666666666666665  0.4505350889640682   F   F   F
  0.1666666666666666  0.6666666666666665  0.5494649110359319   T   T   T
  0.3333333333333333  0.8333333333333334  0.5494649110359319   T   T   T
  0.1666666666666666  0.8333333333333334  0.6483947331077954   T   T   T
  0.3333333333333333  0.6666666666666665  0.6483947331077954   T   T   T
  0.4999999999999999  0.0000000000000000  0.3516052668922047   F   F   F
  0.6666666666666665  0.1666666666666666  0.3516052668922047   F   F   F
  0.4999999999999999  0.1666666666666666  0.4505350889640682   F   F   F
  0.6666666666666665  0.0000000000000000  0.4505350889640682   F   F   F
  0.4999999999999999  0.0000000000000000  0.5494649110359319   T   T   T
  0.6666666666666665  0.1666666666666666  0.5494649110359319   T   T   T
  0.4999999999999999  0.1666666666666666  0.6483947331077954   T   T   T
  0.6666666666666665  0.0000000000000000  0.6483947331077954   T   T   T
  0.4999999999999999  0.3333333333333333  0.3516052668922047   F   F   F
  0.6666666666666665  0.4999999999999999  0.3516052668922047   F   F   F
  0.4999999999999999  0.4999999999999999  0.4505350889640682   F   F   F
  0.6666666666666665  0.3333333333333333  0.4505350889640682   F   F   F
  0.4999999999999999  0.3333333333333333  0.5494649110359319   T   T   T
  0.6666666666666665  0.4999999999999999  0.5494649110359319   T   T   T
  0.4999999999999999  0.4999999999999999  0.6483947331077954   T   T   T
  0.6666666666666665  0.3333333333333333  0.6483947331077954   T   T   T
  0.4999999999999999  0.6666666666666665  0.3516052668922047   F   F   F
  0.6666666666666665  0.8333333333333334  0.3516052668922047   F   F   F
  0.4999999999999999  0.8333333333333334  0.4505350889640682   F   F   F
  0.6666666666666665  0.6666666666666665  0.4505350889640682   F   F   F
  0.4999999999999999  0.6666666666666665  0.5494649110359319   T   T   T
  0.6666666666666665  0.8333333333333334  0.5494649110359319   T   T   T
  0.4999999999999999  0.8333333333333334  0.6483947331077954   T   T   T
  0.6666666666666665  0.6666666666666665  0.6483947331077954   T   T   T
  0.8333333333333334  0.0000000000000000  0.3516052668922047   F   F   F
  0.9999999999999999  0.1666666666666666  0.3516052668922047   F   F   F
  0.8333333333333334  0.1666666666666666  0.4505350889640682   F   F   F
  0.9999999999999999  0.0000000000000000  0.4505350889640682   F   F   F
  0.8333333333333334  0.0000000000000000  0.5494649110359319   T   T   T
  0.9999999999999999  0.1666666666666666  0.5494649110359319   T   T   T
  0.8333333333333334  0.1666666666666666  0.6483947331077954   T   T   T
  0.9999999999999999  0.0000000000000000  0.6483947331077954   T   T   T
  0.8333333333333334  0.3333333333333333  0.3516052668922047   F   F   F
  0.9999999999999999  0.4999999999999999  0.3516052668922047   F   F   F
  0.8333333333333334  0.4999999999999999  0.4505350889640682   F   F   F
  0.9999999999999999  0.3333333333333333  0.4505350889640682   F   F   F
  0.8333333333333334  0.3333333333333333  0.5494649110359319   T   T   T
  0.9999999999999999  0.4999999999999999  0.5494649110359319   T   T   T
  0.8333333333333334  0.4999999999999999  0.6483947331077954   T   T   T
  0.9999999999999999  0.3333333333333333  0.6483947331077954   T   T   T
  0.8333333333333334  0.6666666666666665  0.3516052668922047   F   F   F
  0.9999999999999999  0.8333333333333334  0.3516052668922047   F   F   F
  0.8333333333333334  0.8333333333333334  0.4505350889640682   F   F   F
  0.9999999999999999  0.6666666666666665  0.4505350889640682   F   F   F
  0.8333333333333334  0.6666666666666665  0.5494649110359319   T   T   T
  0.9999999999999999  0.8333333333333334  0.5494649110359319   T   T   T
  0.8333333333333334  0.8333333333333334  0.6483947331077954   T   T   T
  0.9999999999999999  0.6666666666666665  0.6483947331077954   T   T   T
  0.1666666666666666  0.0000000000000000  0.4505350889640682   F   F   F
  0.3333333333333333  0.1666666666666666  0.4505350889640682   F   F   F
  0.1666666666666666  0.1666666666666666  0.3516052668922047   F   F   F
  0.3333333333333333  0.0000000000000000  0.3516052668922047   F   F   F
  0.1666666666666666  0.0000000000000000  0.6483947331077954   T   T   T
  0.3333333333333333  0.1666666666666666  0.6483947331077954   T   T   T
  0.1666666666666666  0.1666666666666666  0.5494649110359319   T   T   T
  0.3333333333333333  0.0000000000000000  0.5494649110359319   T   T   T
  0.1666666666666666  0.3333333333333333  0.4505350889640682   F   F   F
  0.3333333333333333  0.4999999999999999  0.4505350889640682   F   F   F
  0.1666666666666666  0.4999999999999999  0.3516052668922047   F   F   F
  0.3333333333333333  0.3333333333333333  0.3516052668922047   F   F   F
  0.1666666666666666  0.3333333333333333  0.6483947331077954   T   T   T
  0.3333333333333333  0.4999999999999999  0.6483947331077954   T   T   T
  0.1666666666666666  0.4999999999999999  0.5494649110359319   T   T   T
  0.3333333333333333  0.3333333333333333  0.5494649110359319   T   T   T
  0.1666666666666666  0.6666666666666665  0.4505350889640682   F   F   F
  0.3333333333333333  0.8333333333333334  0.4505350889640682   F   F   F
  0.1666666666666666  0.8333333333333334  0.3516052668922047   F   F   F
  0.3333333333333333  0.6666666666666665  0.3516052668922047   F   F   F
  0.1666666666666666  0.6666666666666665  0.6483947331077954   T   T   T
  0.3333333333333333  0.8333333333333334  0.6483947331077954   T   T   T
  0.1666666666666666  0.8333333333333334  0.5494649110359319   T   T   T
  0.3333333333333333  0.6666666666666665  0.5494649110359319   T   T   T
  0.4999999999999999  0.0000000000000000  0.4505350889640682   F   F   F
  0.6666666666666665  0.1666666666666666  0.4505350889640682   F   F   F
  0.4999999999999999  0.1666666666666666  0.3516052668922047   F   F   F
  0.6666666666666665  0.0000000000000000  0.3516052668922047   F   F   F
  0.4999999999999999  0.0000000000000000  0.6483947331077954   T   T   T
  0.6666666666666665  0.1666666666666666  0.6483947331077954   T   T   T
  0.4999999999999999  0.1666666666666666  0.5494649110359319   T   T   T
  0.6666666666666665  0.0000000000000000  0.5494649110359319   T   T   T
  0.4999999999999999  0.3333333333333333  0.4505350889640682   F   F   F
  0.6666666666666665  0.4999999999999999  0.4505350889640682   F   F   F
  0.4999999999999999  0.4999999999999999  0.3516052668922047   F   F   F
  0.6666666666666665  0.3333333333333333  0.3516052668922047   F   F   F
  0.4999999999999999  0.3333333333333333  0.6483947331077954   T   T   T
  0.6666666666666665  0.4999999999999999  0.6483947331077954   T   T   T
  0.4999999999999999  0.4999999999999999  0.5494649110359319   T   T   T
  0.6666666666666665  0.3333333333333333  0.5494649110359319   T   T   T
  0.4999999999999999  0.6666666666666665  0.4505350889640682   F   F   F
  0.6666666666666665  0.8333333333333334  0.4505350889640682   F   F   F
  0.4999999999999999  0.8333333333333334  0.3516052668922047   F   F   F
  0.6666666666666665  0.6666666666666665  0.3516052668922047   F   F   F
  0.4999999999999999  0.6666666666666665  0.6483947331077954   T   T   T
  0.6666666666666665  0.8333333333333334  0.6483947331077954   T   T   T
  0.4999999999999999  0.8333333333333334  0.5494649110359319   T   T   T
  0.6666666666666665  0.6666666666666665  0.5494649110359319   T   T   T
  0.8333333333333334  0.0000000000000000  0.4505350889640682   F   F   F
  0.9999999999999999  0.1666666666666666  0.4505350889640682   F   F   F
  0.8333333333333334  0.1666666666666666  0.3516052668922047   F   F   F
  0.9999999999999999  0.0000000000000000  0.3516052668922047   F   F   F
  0.8333333333333334  0.0000000000000000  0.6483947331077954   T   T   T
  0.9999999999999999  0.1666666666666666  0.6483947331077954   T   T   T
  0.8333333333333334  0.1666666666666666  0.5494649110359319   T   T   T
  0.9999999999999999  0.0000000000000000  0.5494649110359319   T   T   T
  0.8333333333333334  0.3333333333333333  0.4505350889640682   F   F   F
  0.9999999999999999  0.4999999999999999  0.4505350889640682   F   F   F
  0.8333333333333334  0.4999999999999999  0.3516052668922047   F   F   F
  0.9999999999999999  0.3333333333333333  0.3516052668922047   F   F   F
  0.8333333333333334  0.3333333333333333  0.6483947331077954   T   T   T
  0.9999999999999999  0.4999999999999999  0.6483947331077954   T   T   T
  0.8333333333333334  0.4999999999999999  0.5494649110359319   T   T   T
  0.9999999999999999  0.3333333333333333  0.5494649110359319   T   T   T
  0.8333333333333334  0.6666666666666665  0.4505350889640682   F   F   F
  0.9999999999999999  0.8333333333333334  0.4505350889640682   F   F   F
  0.8333333333333334  0.8333333333333334  0.3516052668922047   F   F   F
  0.9999999999999999  0.6666666666666665  0.3516052668922047   F   F   F
  0.8333333333333334  0.6666666666666665  0.6483947331077954   T   T   T
  0.9999999999999999  0.8333333333333334  0.6483947331077954   T   T   T
  0.8333333333333334  0.8333333333333334  0.5494649110359319   T   T   T
  0.9999999999999999  0.6666666666666665  0.5494649110359319   T   T   T
