 C  O Mg  O                             
   1.0000000000000000     
     8.5461136257066865    0.0000000000000000    0.0000000000000000
     0.0000000000000000    8.5461136257066865    0.0000000000000000
     0.0000000000000000    0.0000000000000000   21.4095852192800145
   C    O    Mg   O 
     1     1    32    32
Selective dynamics
Direct
  0.5000000000000000  0.5000000000000000  0.7687364163228310   T   T   T
  0.5000000000000000  0.5000000000000000  0.8217438120969464   T   T   T
  0.0000000000000000  0.7500000000000000  0.3503103830916814   F   F   F
  0.2500000000000000  0.0000000000000000  0.3503103830916814   F   F   F
  0.0000000000000000  0.0000000000000000  0.4501034610305581   F   F   F
  0.2500000000000000  0.7500000000000000  0.4501034610305581   F   F   F
  0.0000000000000000  0.7499111023110601  0.5502566250119472   F   F   F
  0.2500888976889399  0.0000000000000000  0.5502566250119472   F   F   F
  0.0000000000000000  0.0000000000000000  0.6495485727801409   F   F   F
  0.2496257608414467  0.7503742391585533  0.6492585083079376   F   F   F
  0.0000000000000000  0.2500000000000000  0.3503103830916814   F   F   F
  0.2500000000000000  0.5000000000000000  0.3503103830916814   F   F   F
  0.0000000000000000  0.5000000000000000  0.4501034610305581   F   F   F
  0.2500000000000000  0.2500000000000000  0.4501034610305581   F   F   F
  0.0000000000000000  0.2500888976889399  0.5502566250119472   F   F   F
  0.2505184554877999  0.5000000000000000  0.5505553430722827   F   F   F
  0.0000000000000000  0.5000000000000000  0.6494243026785043   F   F   F
  0.2496257608414467  0.2496257608414467  0.6492585083079376   F   F   F
  0.5000000000000000  0.7500000000000000  0.3503103830916814   F   F   F
  0.7500000000000000  0.0000000000000000  0.3503103830916814   F   F   F
  0.5000000000000000  0.0000000000000000  0.4501034610305581   F   F   F
  0.7500000000000000  0.7500000000000000  0.4501034610305581   F   F   F
  0.5000000000000000  0.7494815445122001  0.5505553430722827   F   F   F
  0.7499111023110601  0.0000000000000000  0.5502566250119472   F   F   F
  0.5000000000000000  0.0000000000000000  0.6494243026785043   F   F   F
  0.7503742391585533  0.7503742391585533  0.6492585083079376   F   F   F
  0.5000000000000000  0.2500000000000000  0.3503103830916814   F   F   F
  0.7500000000000000  0.5000000000000000  0.3503103830916814   F   F   F
  0.5000000000000000  0.5000000000000000  0.4501034610305581   F   F   F
  0.7500000000000000  0.2500000000000000  0.4501034610305581   F   F   F
  0.5000000000000000  0.2505184554877999  0.5505553430722827   F   F   F
  0.7494815445122001  0.5000000000000000  0.5505553430722827   F   F   F
  0.5000000000000000  0.5000000000000000  0.6521877869729806   F   F   F
  0.7503742391585533  0.2496257608414467  0.6492585083079376   F   F   F
  0.0000000000000000  0.7500000000000000  0.4501034610305581   F   F   F
  0.2500000000000000  0.0000000000000000  0.4501034610305581   F   F   F
  0.0000000000000000  0.0000000000000000  0.3503103830916814   F   F   F
  0.2500000000000000  0.7500000000000000  0.3503103830916814   F   F   F
  0.0000000000000000  0.7502997110811762  0.6514477143047088   F   F   F
  0.2497002889188238  0.0000000000000000  0.6514477143047088   F   F   F
  0.0000000000000000  0.0000000000000000  0.5500547067736505   F   F   F
  0.2499415150482562  0.7500584849517438  0.5501049330919940   F   F   F
  0.0000000000000000  0.2500000000000000  0.4501034610305581   F   F   F
  0.2500000000000000  0.5000000000000000  0.4501034610305581   F   F   F
  0.0000000000000000  0.5000000000000000  0.3503103830916814   F   F   F
  0.2500000000000000  0.2500000000000000  0.3503103830916814   F   F   F
  0.0000000000000000  0.2497002889188238  0.6514477143047088   F   F   F
  0.2487434275073497  0.5000000000000000  0.6514719899802088   F   F   F
  0.0000000000000000  0.5000000000000000  0.5500397408821271   F   F   F
  0.2499415150482562  0.2499415150482562  0.5501049330919940   F   F   F
  0.5000000000000000  0.7500000000000000  0.4501034610305581   F   F   F
  0.7500000000000000  0.0000000000000000  0.4501034610305581   F   F   F
  0.5000000000000000  0.0000000000000000  0.3503103830916814   F   F   F
  0.7500000000000000  0.7500000000000000  0.3503103830916814   F   F   F
  0.5000000000000000  0.7512565724926503  0.6514719899802088   F   F   F
  0.7502997110811762  0.0000000000000000  0.6514477143047088   F   F   F
  0.5000000000000000  0.0000000000000000  0.5500397408821271   F   F   F
  0.7500584849517438  0.7500584849517438  0.5501049330919940   F   F   F
  0.5000000000000000  0.2500000000000000  0.4501034610305581   F   F   F
  0.7500000000000000  0.5000000000000000  0.4501034610305581   F   F   F
  0.5000000000000000  0.5000000000000000  0.3503103830916814   F   F   F
  0.7500000000000000  0.2500000000000000  0.3503103830916814   F   F   F
  0.5000000000000000  0.2487434275073497  0.6514719899802088   F   F   F
  0.7512565724926503  0.5000000000000000  0.6514719899802088   F   F   F
  0.5000000000000000  0.5000000000000000  0.5505684499862227   F   F   F
  0.7500584849517438  0.2499415150482562  0.5501049330919940   F   F   F

  0.00000000E+00  0.00000000E+00  0.00000000E+00
  0.00000000E+00  0.00000000E+00  0.00000000E+00
  0.00000000E+00  0.00000000E+00  0.00000000E+00
  0.00000000E+00  0.00000000E+00  0.00000000E+00
  0.00000000E+00  0.00000000E+00  0.00000000E+00
  0.00000000E+00  0.00000000E+00  0.00000000E+00
  0.00000000E+00  0.00000000E+00  0.00000000E+00
  0.00000000E+00  0.00000000E+00  0.00000000E+00
  0.00000000E+00  0.00000000E+00  0.00000000E+00
  0.00000000E+00  0.00000000E+00  0.00000000E+00
  0.00000000E+00  0.00000000E+00  0.00000000E+00
  0.00000000E+00  0.00000000E+00  0.00000000E+00
  0.00000000E+00  0.00000000E+00  0.00000000E+00
  0.00000000E+00  0.00000000E+00  0.00000000E+00
  0.00000000E+00  0.00000000E+00  0.00000000E+00
  0.00000000E+00  0.00000000E+00  0.00000000E+00
  0.00000000E+00  0.00000000E+00  0.00000000E+00
  0.00000000E+00  0.00000000E+00  0.00000000E+00
  0.00000000E+00  0.00000000E+00  0.00000000E+00
  0.00000000E+00  0.00000000E+00  0.00000000E+00
  0.00000000E+00  0.00000000E+00  0.00000000E+00
  0.00000000E+00  0.00000000E+00  0.00000000E+00
  0.00000000E+00  0.00000000E+00  0.00000000E+00
  0.00000000E+00  0.00000000E+00  0.00000000E+00
  0.00000000E+00  0.00000000E+00  0.00000000E+00
  0.00000000E+00  0.00000000E+00  0.00000000E+00
  0.00000000E+00  0.00000000E+00  0.00000000E+00
  0.00000000E+00  0.00000000E+00  0.00000000E+00
  0.00000000E+00  0.00000000E+00  0.00000000E+00
  0.00000000E+00  0.00000000E+00  0.00000000E+00
  0.00000000E+00  0.00000000E+00  0.00000000E+00
  0.00000000E+00  0.00000000E+00  0.00000000E+00
  0.00000000E+00  0.00000000E+00  0.00000000E+00
  0.00000000E+00  0.00000000E+00  0.00000000E+00
  0.00000000E+00  0.00000000E+00  0.00000000E+00
  0.00000000E+00  0.00000000E+00  0.00000000E+00
  0.00000000E+00  0.00000000E+00  0.00000000E+00
  0.00000000E+00  0.00000000E+00  0.00000000E+00
  0.00000000E+00  0.00000000E+00  0.00000000E+00
  0.00000000E+00  0.00000000E+00  0.00000000E+00
  0.00000000E+00  0.00000000E+00  0.00000000E+00
  0.00000000E+00  0.00000000E+00  0.00000000E+00
  0.00000000E+00  0.00000000E+00  0.00000000E+00
  0.00000000E+00  0.00000000E+00  0.00000000E+00
  0.00000000E+00  0.00000000E+00  0.00000000E+00
  0.00000000E+00  0.00000000E+00  0.00000000E+00
  0.00000000E+00  0.00000000E+00  0.00000000E+00
  0.00000000E+00  0.00000000E+00  0.00000000E+00
  0.00000000E+00  0.00000000E+00  0.00000000E+00
  0.00000000E+00  0.00000000E+00  0.00000000E+00
  0.00000000E+00  0.00000000E+00  0.00000000E+00
  0.00000000E+00  0.00000000E+00  0.00000000E+00
  0.00000000E+00  0.00000000E+00  0.00000000E+00
  0.00000000E+00  0.00000000E+00  0.00000000E+00
  0.00000000E+00  0.00000000E+00  0.00000000E+00
  0.00000000E+00  0.00000000E+00  0.00000000E+00
  0.00000000E+00  0.00000000E+00  0.00000000E+00
  0.00000000E+00  0.00000000E+00  0.00000000E+00
  0.00000000E+00  0.00000000E+00  0.00000000E+00
  0.00000000E+00  0.00000000E+00  0.00000000E+00
  0.00000000E+00  0.00000000E+00  0.00000000E+00
  0.00000000E+00  0.00000000E+00  0.00000000E+00
  0.00000000E+00  0.00000000E+00  0.00000000E+00
  0.00000000E+00  0.00000000E+00  0.00000000E+00
  0.00000000E+00  0.00000000E+00  0.00000000E+00
  0.00000000E+00  0.00000000E+00  0.00000000E+00
