 C  O Mg  O 
 1.0000000000000000
     8.4409846541513982    0.0000000000000000    0.0000000000000000
     0.0000000000000000    8.4409846541513982    0.0000000000000000
     0.0000000000000000    0.0000000000000000   21.3307384906135482
   C   O  Mg   O
   1   1  32  32
Selective dynamics
Direct
  0.5000000000000000  0.5000000000000000  0.7613750483183692   T   T   T
  0.5000000000000000  0.5000000000000000  0.8151282449036122   T   T   T
  0.0000000000000000  0.7500000000000000  0.3516052668922072   F   F   F
  0.2500000000000000  0.0000000000000000  0.3516052668922072   F   F   F
  0.0000000000000000  0.0000000000000000  0.4505350889640667   F   F   F
  0.2500000000000000  0.7500000000000000  0.4505350889640667   F   F   F
  0.0000000000000000  0.7500000000000000  0.5501714244347254   T   T   T
  0.2500000000000000  0.0000000000000000  0.5501714244347254   T   T   T
  0.0000000000000000  0.0000000000000000  0.6488613629128637   T   T   T
  0.2500000000000000  0.7500000000000000  0.6488613629128637   T   T   T
  0.0000000000000000  0.2500000000000000  0.3516052668922072   F   F   F
  0.2500000000000000  0.5000000000000000  0.3516052668922072   F   F   F
  0.0000000000000000  0.5000000000000000  0.4505350889640667   F   F   F
  0.2500000000000000  0.2500000000000000  0.4505350889640667   F   F   F
  0.0000000000000000  0.2500000000000000  0.5501714244347254   T   T   T
  0.2500000000000000  0.5000000000000000  0.5501714244347254   T   T   T
  0.0000000000000000  0.5000000000000000  0.6488613629128637   T   T   T
  0.2500000000000000  0.2500000000000000  0.6488613629128637   T   T   T
  0.5000000000000000  0.7500000000000000  0.3516052668922072   F   F   F
  0.7500000000000000  0.0000000000000000  0.3516052668922072   F   F   F
  0.5000000000000000  0.0000000000000000  0.4505350889640667   F   F   F
  0.7500000000000000  0.7500000000000000  0.4505350889640667   F   F   F
  0.5000000000000000  0.7500000000000000  0.5501714244347254   T   T   T
  0.7500000000000000  0.0000000000000000  0.5501714244347254   T   T   T
  0.5000000000000000  0.0000000000000000  0.6488613629128637   T   T   T
  0.7500000000000000  0.7500000000000000  0.6488613629128637   T   T   T
  0.5000000000000000  0.2500000000000000  0.3516052668922072   F   F   F
  0.7500000000000000  0.5000000000000000  0.3516052668922072   F   F   F
  0.5000000000000000  0.5000000000000000  0.4505350889640667   F   F   F
  0.7500000000000000  0.2500000000000000  0.4505350889640667   F   F   F
  0.5000000000000000  0.2500000000000000  0.5501714244347254   T   T   T
  0.7500000000000000  0.5000000000000000  0.5501714244347254   T   T   T
  0.5000000000000000  0.5000000000000000  0.6488613629128637   T   T   T
  0.7500000000000000  0.2500000000000000  0.6488613629128637   T   T   T
  0.0000000000000000  0.7500000000000000  0.4505350889640667   F   F   F
  0.2500000000000000  0.0000000000000000  0.4505350889640667   F   F   F
  0.0000000000000000  0.0000000000000000  0.3516052668922072   F   F   F
  0.2500000000000000  0.7500000000000000  0.3516052668922072   F   F   F
  0.0000000000000000  0.7500000000000000  0.6510063231247947   T   T   T
  0.2500000000000000  0.0000000000000000  0.6510063231247947   T   T   T
  0.0000000000000000  0.0000000000000000  0.5498902444531061   T   T   T
  0.2500000000000000  0.7500000000000000  0.5498902444531061   T   T   T
  0.0000000000000000  0.2500000000000000  0.4505350889640667   F   F   F
  0.2500000000000000  0.5000000000000000  0.4505350889640667   F   F   F
  0.0000000000000000  0.5000000000000000  0.3516052668922072   F   F   F
  0.2500000000000000  0.2500000000000000  0.3516052668922072   F   F   F
  0.0000000000000000  0.2500000000000000  0.6510063231247947   T   T   T
  0.2500000000000000  0.5000000000000000  0.6510063231247947   T   T   T
  0.0000000000000000  0.5000000000000000  0.5498902444531061   T   T   T
  0.2500000000000000  0.2500000000000000  0.5498902444531061   T   T   T
  0.5000000000000000  0.7500000000000000  0.4505350889640667   F   F   F
  0.7500000000000000  0.0000000000000000  0.4505350889640667   F   F   F
  0.5000000000000000  0.0000000000000000  0.3516052668922072   F   F   F
  0.7500000000000000  0.7500000000000000  0.3516052668922072   F   F   F
  0.5000000000000000  0.7500000000000000  0.6510063231247947   T   T   T
  0.7500000000000000  0.0000000000000000  0.6510063231247947   T   T   T
  0.5000000000000000  0.0000000000000000  0.5498902444531061   T   T   T
  0.7500000000000000  0.7500000000000000  0.5498902444531061   T   T   T
  0.5000000000000000  0.2500000000000000  0.4505350889640667   F   F   F
  0.7500000000000000  0.5000000000000000  0.4505350889640667   F   F   F
  0.5000000000000000  0.5000000000000000  0.3516052668922072   F   F   F
  0.7500000000000000  0.2500000000000000  0.3516052668922072   F   F   F
  0.5000000000000000  0.2500000000000000  0.6510063231247947   T   T   T
  0.7500000000000000  0.5000000000000000  0.6510063231247947   T   T   T
  0.5000000000000000  0.5000000000000000  0.5498902444531061   T   T   T
  0.7500000000000000  0.2500000000000000  0.5498902444531061   T   T   T
